! agentee dut6cm-s
! ports P1 P2
# Hz S RI R 50
1.000000e8 6.475554e-3 -5.645970e-4 9.693694e-1 -2.164374e-1 9.693691e-1 -2.164373e-1 6.475454e-3 -5.645620e-4
2.000000e8 7.911224e-3 -6.233835e-3 8.965641e-1 -4.165289e-1 8.965639e-1 -4.165288e-1 7.911142e-3 -6.233765e-3
3.000000e8 5.816801e-3 -1.223805e-2 7.854021e-1 -5.956970e-1 7.854019e-1 -5.956969e-1 5.816748e-3 -1.223796e-2
4.000000e8 5.708498e-4 -1.722173e-2 6.392558e-1 -7.459047e-1 6.392556e-1 -7.459045e-1 5.708322e-4 -1.722163e-2
5.000000e8 -6.375882e-3 -1.931879e-2 4.664432e-1 -8.621805e-1 4.664431e-1 -8.621803e-1 -6.375864e-3 -1.931868e-2
6.000000e8 -1.386375e-2 -1.859391e-2 2.729663e-1 -9.386686e-1 2.729662e-1 -9.386684e-1 -1.386370e-2 -1.859381e-2
7.000000e8 -2.033632e-2 -1.488043e-2 6.915020e-2 -9.732525e-1 6.915019e-2 -9.732522e-1 -2.033625e-2 -1.488036e-2
8.000000e8 -2.506418e-2 -9.104270e-3 -1.375216e-1 -9.636080e-1 -1.375216e-1 -9.636078e-1 -2.506409e-2 -9.104228e-3
9.000000e8 -2.704611e-2 -1.988907e-3 -3.362583e-1 -9.115241e-1 -3.362582e-1 -9.115239e-1 -2.704602e-2 -1.988898e-3
1.000000e9 -2.639133e-2 5.164661e-3 -5.198667e-1 -8.184057e-1 -5.198666e-1 -8.184055e-1 -2.639124e-2 5.164638e-3
1.100000e9 -2.285036e-2 1.141292e-2 -6.786648e-1 -6.897970e-1 -6.786646e-1 -6.897968e-1 -2.285030e-2 1.141287e-2
1.200000e9 -1.752913e-2 1.546568e-2 -8.073443e-1 -5.305058e-1 -8.073440e-1 -5.305057e-1 -1.752909e-2 1.546562e-2
1.300000e9 -1.112050e-2 1.713398e-2 -8.990168e-1 -3.487438e-1 -8.990166e-1 -3.487437e-1 -1.112049e-2 1.713391e-2
1.400000e9 -4.814411e-3 1.595237e-2 -9.508405e-1 -1.514060e-1 -9.508402e-1 -1.514060e-1 -4.814435e-3 1.595231e-2
1.500000e9 3.747730e-4 1.225179e-2 -9.596018e-1 5.119952e-2 -9.596015e-1 5.119950e-2 3.747219e-4 1.225174e-2
1.600000e9 3.327647e-3 6.702416e-3 -9.261051e-1 2.516442e-1 -9.261049e-1 2.516441e-1 3.327577e-3 6.702395e-3
1.700000e9 3.682186e-3 3.194429e-4 -8.509718e-1 4.393110e-1 -8.509716e-1 4.393109e-1 3.682106e-3 3.194530e-4
1.800000e9 1.069179e-3 -5.706590e-3 -7.386399e-1 6.076142e-1 -7.386398e-1 6.076140e-1 1.069102e-3 -5.706547e-3
1.900000e9 -3.895546e-3 -1.029383e-2 -5.934411e-1 7.472439e-1 -5.934410e-1 7.472437e-1 -3.895611e-3 -1.029376e-2
2.000000e9 -1.072501e-2 -1.246337e-2 -4.228007e-1 8.539971e-1 -4.228006e-1 8.539969e-1 -1.072505e-2 -1.246327e-2
2.100000e9 -1.801333e-2 -1.181492e-2 -2.338860e-1 9.213035e-1 -2.338859e-1 9.213033e-1 -1.801334e-2 -1.181481e-2
2.200000e9 -2.498768e-2 -8.074614e-3 -3.571687e-2 9.484465e-1 -3.571688e-2 9.484463e-1 -2.498766e-2 -8.074498e-3
2.300000e9 -2.971963e-2 -1.841514e-3 1.628252e-1 9.324293e-1 1.628252e-1 9.324291e-1 -2.971958e-2 -1.841404e-3
2.400000e9 -3.225089e-2 5.636979e-3 3.532819e-1 8.772333e-1 3.532818e-1 8.772331e-1 -3.225081e-2 5.637075e-3
2.500000e9 -3.170179e-2 1.397907e-2 5.277243e-1 7.823307e-1 5.277242e-1 7.823305e-1 -3.170170e-2 1.397915e-2
2.600000e9 -2.797659e-2 2.142913e-2 6.783811e-1 6.552068e-1 6.783809e-1 6.552067e-1 -2.797649e-2 2.142918e-2
2.700000e9 -2.168888e-2 2.687311e-2 7.994206e-1 4.983791e-1 7.994204e-1 4.983790e-1 -2.168878e-2 2.687313e-2
2.800000e9 -1.391294e-2 2.941413e-2 8.856000e-1 3.213810e-1 8.855998e-1 3.213809e-1 -1.391285e-2 2.941413e-2
2.900000e9 -5.860957e-3 2.862450e-2 9.329790e-1 1.285702e-1 9.329787e-1 1.285702e-1 -5.860875e-3 2.862448e-2
3.000000e9 9.804951e-4 2.475943e-2 9.395155e-1 -6.852748e-2 9.395153e-1 -6.852744e-2 9.805578e-4 2.475939e-2
3.100000e9 5.598418e-3 1.841830e-2 9.041792e-1 -2.646181e-1 9.041790e-1 -2.646180e-1 5.598458e-3 1.841826e-2
3.200000e9 7.014738e-3 1.088324e-2 8.290175e-1 -4.473900e-1 8.290174e-1 -4.473899e-1 7.014755e-3 1.088320e-2
3.300000e9 5.195381e-3 3.289844e-3 7.162928e-1 -6.123618e-1 7.162926e-1 -6.123617e-1 5.195377e-3 3.289808e-3
3.400000e9 1.072948e-5 -2.697382e-3 5.720263e-1 -7.479819e-1 5.720262e-1 -7.479817e-1 1.070736e-5 -2.697405e-3
3.500000e9 -6.907032e-3 -5.989586e-3 4.016048e-1 -8.520779e-1 4.016047e-1 -8.520777e-1 -6.907067e-3 -5.989590e-3
3.600000e9 -1.497798e-2 -6.592842e-3 2.143956e-1 -9.163558e-1 2.143956e-1 -9.163556e-1 -1.497802e-2 -6.592825e-3
3.700000e9 -2.310177e-2 -3.513756e-3 1.565528e-2 -9.417044e-1 1.565531e-2 -9.417042e-1 -2.310182e-2 -3.513717e-3
3.800000e9 -2.924240e-2 2.676751e-3 -1.813740e-1 -9.220633e-1 -1.813739e-1 -9.220631e-1 -2.924243e-2 2.676811e-3
3.900000e9 -3.285646e-2 1.092132e-2 -3.731483e-1 -8.641263e-1 -3.731482e-1 -8.641262e-1 -3.285648e-2 1.092139e-2
4.000000e9 -3.276618e-2 2.021248e-2 -5.442760e-1 -7.633258e-1 -5.442758e-1 -7.633257e-1 -3.276619e-2 2.021257e-2
4.100000e9 -2.950207e-2 2.903729e-2 -6.972153e-1 -6.313927e-1 -6.972151e-1 -6.313926e-1 -2.950206e-2 2.903739e-2
4.200000e9 -2.144244e-2 3.640310e-2 -8.022901e-1 -4.573468e-1 -8.022899e-1 -4.573467e-1 -2.144241e-2 3.640320e-2
4.300000e9 -1.181303e-2 3.724358e-2 -8.687355e-1 -3.004236e-1 -8.687353e-1 -3.004236e-1 -1.181298e-2 3.724368e-2
4.400000e9 -5.033671e-3 3.614953e-2 -9.309416e-1 -1.133171e-1 -9.309414e-1 -1.133171e-1 -5.033599e-3 3.614964e-2
4.500000e9 2.642336e-3 3.312113e-2 -9.309660e-1 9.081555e-2 -9.309659e-1 9.081551e-2 2.642428e-3 3.312123e-2
4.600000e9 7.880043e-3 2.652911e-2 -8.930637e-1 2.842142e-1 -8.930636e-1 2.842141e-1 7.880152e-3 2.652919e-2
4.700000e9 1.035267e-2 1.876237e-2 -8.109011e-1 4.666874e-1 -8.109010e-1 4.666873e-1 1.035279e-2 1.876243e-2
4.800000e9 9.199396e-3 9.963465e-3 -6.958742e-1 6.263522e-1 -6.958741e-1 6.263520e-1 9.199525e-3 9.963507e-3
4.900000e9 4.153093e-3 2.583194e-3 -5.465995e-1 7.589110e-1 -5.465994e-1 7.589109e-1 4.153224e-3 2.583214e-3
5.000000e9 -3.670778e-3 -2.197240e-3 -3.754904e-1 8.560855e-1 -3.754903e-1 8.560854e-1 -3.670652e-3 -2.197240e-3
5.100000e9 -1.306216e-2 -3.323647e-3 -1.857322e-1 9.153909e-1 -1.857322e-1 9.153907e-1 -1.306205e-2 -3.323664e-3
5.200000e9 -2.244499e-2 -5.282884e-4 1.007357e-2 9.329828e-1 1.007354e-2 9.329826e-1 -2.244488e-2 -5.283194e-4
5.300000e9 -3.018599e-2 6.001373e-3 2.065927e-1 9.091559e-1 2.065927e-1 9.091558e-1 -3.018590e-2 6.001333e-3
5.400000e9 -3.494364e-2 1.523765e-2 3.918661e-1 8.445303e-1 3.918660e-1 8.445301e-1 -3.494357e-2 1.523761e-2
5.500000e9 -3.578030e-2 2.586602e-2 5.605120e-1 7.426143e-1 5.605119e-1 7.426142e-1 -3.578024e-2 2.586597e-2
5.600000e9 -3.248846e-2 3.611570e-2 7.025604e-1 6.078675e-1 7.025602e-1 6.078674e-1 -3.248841e-2 3.611566e-2
5.700000e9 -2.544549e-2 4.443935e-2 8.142097e-1 4.464890e-1 8.142096e-1 4.464890e-1 -2.544545e-2 4.443932e-2
5.800000e9 -1.580378e-2 4.935771e-2 8.884907e-1 2.656478e-1 8.884906e-1 2.656478e-1 -1.580374e-2 4.935769e-2
5.900000e9 -5.050887e-3 5.026647e-2 9.241850e-1 7.332945e-2 9.241848e-1 7.332947e-2 -5.050849e-3 5.026646e-2
6.000000e9 5.184702e-3 4.681327e-2 9.181381e-1 -1.219390e-1 9.181380e-1 -1.219390e-1 5.184745e-3 4.681327e-2
6.100000e9 1.303185e-2 3.958114e-2 8.720198e-1 -3.119034e-1 8.720196e-1 -3.119034e-1 1.303190e-2 3.958115e-2
6.200000e9 1.721055e-2 2.988447e-2 7.863955e-1 -4.876539e-1 7.863954e-1 -4.876538e-1 1.721062e-2 2.988448e-2
6.300000e9 1.701254e-2 1.933006e-2 6.663839e-1 -6.418406e-1 6.663839e-1 -6.418405e-1 1.701261e-2 1.933006e-2
6.400000e9 1.239030e-2 9.793736e-3 5.160236e-1 -7.670000e-1 5.160235e-1 -7.669999e-1 1.239039e-2 9.793726e-3
6.500000e9 4.119449e-3 2.959313e-3 3.432276e-1 -8.579861e-1 3.432276e-1 -8.579860e-1 4.119535e-3 2.959290e-3
6.600000e9 -6.453261e-3 1.391490e-4 1.547361e-1 -9.101105e-1 1.547361e-1 -9.101104e-1 -6.453175e-3 1.391114e-4
6.700000e9 -1.749476e-2 1.925472e-3 -3.989058e-2 -9.216323e-1 -3.989055e-2 -9.216322e-1 -1.749468e-2 1.925419e-3
6.800000e9 -2.711921e-2 8.192046e-3 -2.327253e-1 -8.915461e-1 -2.327252e-1 -8.915460e-1 -2.711913e-2 8.191980e-3
6.900000e9 -3.360112e-2 1.797879e-2 -4.142410e-1 -8.219870e-1 -4.142409e-1 -8.219869e-1 -3.360106e-2 1.797872e-2
7.000000e9 -3.576663e-2 2.977815e-2 -5.771162e-1 -7.156629e-1 -5.771161e-1 -7.156628e-1 -3.576659e-2 2.977807e-2
7.100000e9 -3.313777e-2 4.164324e-2 -7.135066e-1 -5.781273e-1 -7.135065e-1 -5.781272e-1 -3.313775e-2 4.164316e-2
7.200000e9 -2.605629e-2 5.168919e-2 -8.181611e-1 -4.150211e-1 -8.181610e-1 -4.150211e-1 -2.605628e-2 5.168912e-2
7.300000e9 -1.558960e-2 5.819997e-2 -8.860854e-1 -2.342209e-1 -8.860853e-1 -2.342209e-1 -1.558961e-2 5.819991e-2
7.400000e9 -3.438857e-3 6.012338e-2 -9.149145e-1 -4.305685e-2 -9.149144e-1 -4.305687e-2 -3.438870e-3 6.012334e-2
7.500000e9 8.418652e-3 5.709778e-2 -9.030009e-1 1.494906e-1 -9.030008e-1 1.494905e-1 8.418638e-3 5.709774e-2
7.600000e9 1.800721e-2 4.964941e-2 -8.512448e-1 3.356198e-1 -8.512447e-1 3.356198e-1 1.800720e-2 4.964939e-2
7.700000e9 2.370166e-2 3.900583e-2 -7.614909e-1 5.065194e-1 -7.614908e-1 5.065193e-1 2.370166e-2 3.900582e-2
7.800000e9 2.451041e-2 2.701652e-2 -6.379074e-1 6.551670e-1 -6.379073e-1 6.551669e-1 2.451041e-2 2.701651e-2
7.900000e9 2.024939e-2 1.574905e-2 -4.856426e-1 7.742387e-1 -4.856426e-1 7.742386e-1 2.024941e-2 1.574905e-2
8.000000e9 1.161397e-2 7.233565e-3 -3.117086e-1 8.588485e-1 -3.117086e-1 8.588484e-1 1.161400e-2 7.233551e-3
8.100000e9 5.483118e-5 3.023619e-3 -1.237867e-1 9.045130e-1 -1.237867e-1 9.045128e-1 5.486236e-5 3.023595e-3
8.200000e9 -1.243301e-2 3.988671e-3 6.939024e-2 9.096925e-1 6.939020e-2 9.096924e-1 -1.243298e-2 3.988635e-3
8.300000e9 -2.367791e-2 1.009657e-2 2.591027e-1 8.736966e-1 2.591026e-1 8.736965e-1 -2.367788e-2 1.009652e-2
8.400000e9 -3.165392e-2 2.043396e-2 4.366621e-1 7.988394e-1 4.366620e-1 7.988394e-1 -3.165391e-2 2.043390e-2
8.500000e9 -3.493723e-2 3.331400e-2 5.941381e-1 6.881953e-1 5.941380e-1 6.881953e-1 -3.493723e-2 3.331393e-2
8.600000e9 -3.284797e-2 4.665766e-2 7.245837e-1 5.474702e-1 7.245836e-1 5.474701e-1 -3.284798e-2 4.665760e-2
8.700000e9 -2.564278e-2 5.822678e-2 8.223978e-1 3.826151e-1 8.223977e-1 3.826150e-1 -2.564281e-2 5.822672e-2
8.800000e9 -1.442974e-2 6.611394e-2 8.835034e-1 2.014860e-1 8.835033e-1 2.014860e-1 -1.442979e-2 6.611389e-2
8.900000e9 -1.031711e-3 6.896842e-2 9.053538e-1 1.159890e-2 9.053537e-1 1.159892e-2 -1.031769e-3 6.896839e-2
9.000000e9 1.236182e-2 6.632182e-2 8.871619e-1 -1.783428e-1 8.871618e-1 -1.783427e-1 1.236175e-2 6.632181e-2
9.100000e9 2.350567e-2 5.859207e-2 8.296198e-1 -3.605010e-1 8.296198e-1 -3.605009e-1 2.350560e-2 5.859208e-2
9.200000e9 3.054647e-2 4.709371e-2 7.352578e-1 -5.264764e-1 7.352577e-1 -5.264763e-1 3.054641e-2 4.709374e-2
9.300000e9 3.222359e-2 3.376941e-2 6.079849e-1 -6.692530e-1 6.079849e-1 -6.692529e-1 3.222354e-2 3.376945e-2
9.400000e9 2.825760e-2 2.097437e-2 4.534666e-1 -7.819939e-1 4.534666e-1 -7.819938e-1 2.825757e-2 2.097442e-2
9.500000e9 1.926102e-2 1.094725e-2 2.784005e-1 -8.597698e-1 2.784005e-1 -8.597697e-1 1.926101e-2 1.094731e-2
9.600000e9 6.832220e-3 5.539864e-3 9.095599e-2 -8.986534e-1 9.095601e-2 -8.986533e-1 6.832221e-3 5.539926e-3
9.700000e9 -6.975870e-3 5.730501e-3 -1.006437e-1 -8.971578e-1 -1.006437e-1 -8.971577e-1 -6.975854e-3 5.730559e-3
9.800000e9 -1.970115e-2 1.176863e-2 -2.873259e-1 -8.548709e-1 -2.873258e-1 -8.548708e-1 -1.970112e-2 1.176868e-2
9.900000e9 -2.900614e-2 2.263702e-2 -4.606074e-1 -7.742683e-1 -4.606073e-1 -7.742682e-1 -2.900611e-2 2.263706e-2
1.000000e10 -3.322475e-2 3.656347e-2 -6.125218e-1 -6.589872e-1 -6.125218e-1 -6.589872e-1 -3.322471e-2 3.656350e-2
1.010000e10 -3.154683e-2 5.121588e-2 -7.365487e-1 -5.147341e-1 -7.365486e-1 -5.147341e-1 -3.154679e-2 5.121590e-2
1.020000e10 -2.413342e-2 6.415531e-2 -8.271860e-1 -3.479400e-1 -8.271859e-1 -3.479400e-1 -2.413338e-2 6.415532e-2
1.030000e10 -1.219633e-2 7.317491e-2 -8.808748e-1 -1.663201e-1 -8.808747e-1 -1.663201e-1 -1.219629e-2 7.317492e-2
1.040000e10 2.360523e-3 7.683032e-2 -8.952888e-1 2.224784e-2 -8.952887e-1 2.224780e-2 2.360558e-3 7.683032e-2
1.050000e10 1.717519e-2 7.440620e-2 -8.702492e-1 2.094796e-1 -8.702492e-1 2.094795e-1 1.717522e-2 7.440620e-2
1.060000e10 2.971347e-2 6.630178e-2 -8.064816e-1 3.874509e-1 -8.064816e-1 3.874509e-1 2.971350e-2 6.630178e-2
1.070000e10 3.785980e-2 5.389464e-2 -7.069939e-1 5.481296e-1 -7.069938e-1 5.481295e-1 3.785983e-2 5.389465e-2
1.080000e10 4.020138e-2 3.932874e-2 -5.757657e-1 6.846138e-1 -5.757657e-1 6.846138e-1 4.020141e-2 3.932874e-2
1.090000e10 3.634534e-2 2.513558e-2 -4.186600e-1 7.905059e-1 -4.186600e-1 7.905058e-1 3.634537e-2 2.513558e-2
1.100000e10 2.691120e-2 1.380520e-2 -2.423882e-1 8.609561e-1 -2.423882e-1 8.609560e-1 2.691122e-2 1.380520e-2
1.110000e10 1.352882e-2 7.411897e-3 -5.516143e-2 8.924316e-1 -5.516145e-2 8.924315e-1 1.352885e-2 7.411901e-3
1.120000e10 -1.466529e-3 7.162663e-3 1.346356e-1 8.834493e-1 1.346356e-1 8.834493e-1 -1.466500e-3 7.162667e-3
1.130000e10 -1.541404e-2 1.323503e-2 3.179361e-1 8.343297e-1 3.179361e-1 8.343296e-1 -1.541401e-2 1.323503e-2
1.140000e10 -2.580647e-2 2.466246e-2 4.865076e-1 7.475364e-1 4.865076e-1 7.475364e-1 -2.580644e-2 2.466247e-2
1.150000e10 -3.074652e-2 3.953820e-2 6.324015e-1 6.272169e-1 6.324014e-1 6.272168e-1 -3.074648e-2 3.953820e-2
1.160000e10 -2.932417e-2 5.535525e-2 7.494223e-1 4.791843e-1 7.494223e-1 4.791843e-1 -2.932414e-2 5.535525e-2
1.170000e10 -2.162535e-2 6.949407e-2 8.322964e-1 3.102370e-1 8.322963e-1 3.102370e-1 -2.162531e-2 6.949407e-2
1.180000e10 -8.864808e-3 7.944590e-2 8.778726e-1 1.281631e-1 8.778726e-1 1.281632e-1 -8.864770e-3 7.944590e-2
1.190000e10 6.789698e-3 8.357898e-2 8.842914e-1 -5.906308e-2 8.842913e-1 -5.906305e-2 6.789739e-3 8.357898e-2
1.200000e10 2.279792e-2 8.116989e-2 8.516257e-1 -2.433183e-1 8.516257e-1 -2.433183e-1 2.279796e-2 8.116989e-2
1.210000e10 3.644948e-2 7.262425e-2 7.811528e-1 -4.166551e-1 7.811527e-1 -4.166550e-1 3.644953e-2 7.262424e-2
1.220000e10 4.547142e-2 5.936177e-2 6.760335e-1 -5.715577e-1 6.760335e-1 -5.715577e-1 4.547146e-2 5.936175e-2
1.230000e10 4.828567e-2 4.367191e-2 5.405058e-1 -7.011312e-1 5.405058e-1 -7.011312e-1 4.828572e-2 4.367189e-2
1.240000e10 4.442495e-2 2.823244e-2 3.805579e-1 -7.994560e-1 3.805579e-1 -7.994559e-1 4.442500e-2 2.823241e-2
1.250000e10 3.446257e-2 1.581551e-2 2.030884e-1 -8.618118e-1 2.030884e-1 -8.618117e-1 3.446261e-2 1.581547e-2
1.260000e10 2.022515e-2 8.643877e-3 1.626044e-2 -8.851935e-1 1.626047e-2 -8.851934e-1 2.022518e-2 8.643832e-3
1.270000e10 4.106969e-3 8.048524e-3 -1.715143e-1 -8.681724e-1 -1.715142e-1 -8.681723e-1 4.106989e-3 8.048476e-3
1.280000e10 -1.092802e-2 1.431305e-2 -3.511433e-1 -8.115126e-1 -3.511433e-1 -8.115126e-1 -1.092801e-2 1.431301e-2
1.290000e10 -2.219158e-2 2.632673e-2 -5.144083e-1 -7.179876e-1 -5.144082e-1 -7.179875e-1 -2.219158e-2 2.632668e-2
1.300000e10 -2.765931e-2 4.210995e-2 -6.536773e-1 -5.921838e-1 -6.536772e-1 -5.921838e-1 -2.765932e-2 4.210992e-2
1.310000e10 -2.627226e-2 5.895027e-2 -7.628706e-1 -4.401020e-1 -7.628706e-1 -4.401020e-1 -2.627228e-2 5.895024e-2
1.320000e10 -1.819048e-2 7.397255e-2 -8.372229e-1 -2.689621e-1 -8.372228e-1 -2.689621e-1 -1.819050e-2 7.397254e-2
1.330000e10 -4.723566e-3 8.460433e-2 -8.739126e-1 -8.649383e-2 -8.739126e-1 -8.649385e-2 -4.723582e-3 8.460433e-2
1.340000e10 1.189632e-2 8.903843e-2 -8.715486e-1 9.914521e-2 -8.715485e-1 9.914518e-2 1.189631e-2 8.903844e-2
1.350000e10 2.889059e-2 8.651346e-2 -8.305867e-1 2.799967e-1 -8.305866e-1 2.799966e-1 2.889059e-2 8.651348e-2
1.360000e10 4.343649e-2 7.744904e-2 -7.527507e-1 4.482129e-1 -7.527507e-1 4.482128e-1 4.343650e-2 7.744906e-2
1.370000e10 5.302704e-2 6.333398e-2 -6.414585e-1 5.965537e-1 -6.414585e-1 5.965536e-1 5.302707e-2 6.333401e-2
1.380000e10 5.603119e-2 4.668720e-2 -5.013417e-1 7.184178e-1 -5.013417e-1 7.184177e-1 5.603123e-2 4.668722e-2
1.390000e10 5.199723e-2 3.030590e-2 -3.383878e-1 8.082942e-1 -3.383878e-1 8.082941e-1 5.199728e-2 3.030591e-2
1.400000e10 4.153618e-2 1.708711e-2 -1.596964e-1 8.616745e-1 -1.596964e-1 8.616744e-1 4.153624e-2 1.708710e-2
1.410000e10 2.651422e-2 9.388593e-3 2.653681e-2 8.758906e-1 2.653677e-2 8.758906e-1 2.651428e-2 9.388569e-3
1.420000e10 9.554915e-3 8.649705e-3 2.117055e-1 8.499264e-1 2.117055e-1 8.499264e-1 9.554974e-3 8.649667e-3
1.430000e10 -6.294668e-3 1.503609e-2 3.869699e-1 7.849798e-1 3.869699e-1 7.849798e-1 -6.294617e-3 1.503603e-2
1.440000e10 -1.821790e-2 2.751072e-2 5.440943e-1 6.840963e-1 5.440943e-1 6.840963e-1 -1.821786e-2 2.751066e-2
1.450000e10 -2.407349e-2 4.385393e-2 6.756810e-1 5.522899e-1 6.756809e-1 5.522899e-1 -2.407346e-2 4.385386e-2
1.460000e10 -2.283367e-2 6.131279e-2 7.758862e-1 3.959349e-1 7.758862e-1 3.959349e-1 -2.283366e-2 6.131272e-2
1.470000e10 -1.480069e-2 7.676273e-2 8.402973e-1 2.224719e-1 8.402973e-1 2.224719e-1 -1.480069e-2 7.676266e-2
1.480000e10 -1.371566e-3 8.807071e-2 8.665471e-1 4.021122e-2 8.665471e-1 4.021125e-2 -1.371578e-3 8.807066e-2
1.490000e10 1.562632e-2 9.285577e-2 8.541367e-1 -1.431269e-1 8.541367e-1 -1.431268e-1 1.562631e-2 9.285572e-2
1.500000e10 3.230359e-2 9.059276e-2 8.031286e-1 -3.192497e-1 8.031286e-1 -3.192496e-1 3.230357e-2 9.059272e-2
1.510000e10 4.660327e-2 8.281383e-2 7.166998e-1 -4.797501e-1 7.166998e-1 -4.797500e-1 4.660325e-2 8.281379e-2
1.520000e10 5.710560e-2 7.078286e-2 5.993318e-1 -6.177743e-1 5.993318e-1 -6.177742e-1 5.710558e-2 7.078284e-2
1.530000e10 6.343878e-2 5.540066e-2 4.579278e-1 -7.283225e-1 4.579278e-1 -7.283224e-1 6.343877e-2 5.540064e-2
1.540000e10 6.295862e-2 3.684940e-2 2.969337e-1 -8.099383e-1 2.969338e-1 -8.099382e-1 6.295861e-2 3.684937e-2
1.550000e10 5.315154e-2 1.982503e-2 1.195563e-1 -8.573356e-1 1.195564e-1 -8.573356e-1 5.315153e-2 1.982500e-2
1.560000e10 3.637645e-2 9.502438e-3 -6.602247e-2 -8.650328e-1 -6.602244e-2 -8.650327e-1 3.637644e-2 9.502405e-3
1.570000e10 1.710643e-2 7.937241e-3 -2.494021e-1 -8.316557e-1 -2.494020e-1 -8.316557e-1 1.710642e-2 7.937205e-3
1.580000e10 -7.778881e-4 1.480940e-2 -4.212106e-1 -7.591532e-1 -4.212105e-1 -7.591532e-1 -7.779116e-4 1.480936e-2
1.590000e10 -1.395408e-2 2.866378e-2 -5.729189e-1 -6.512789e-1 -5.729189e-1 -6.512789e-1 -1.395411e-2 2.866375e-2
1.600000e10 -2.013448e-2 4.677550e-2 -6.975830e-1 -5.137088e-1 -6.975830e-1 -5.137088e-1 -2.013453e-2 4.677546e-2
1.610000e10 -1.827090e-2 6.594162e-2 -7.894890e-1 -3.531085e-1 -7.894889e-1 -3.531085e-1 -1.827095e-2 6.594159e-2
1.620000e10 -8.714710e-3 8.282920e-2 -8.449155e-1 -1.773989e-1 -8.449155e-1 -1.773989e-1 -8.714767e-3 8.282919e-2
1.630000e10 6.996069e-3 9.445388e-2 -8.618087e-1 5.331113e-3 -8.618086e-1 5.331089e-3 6.996012e-3 9.445389e-2
1.640000e10 2.600713e-2 9.886369e-2 -8.401339e-1 1.868891e-1 -8.401339e-1 1.868891e-1 2.600707e-2 9.886372e-2
1.650000e10 4.532322e-2 9.535221e-2 -7.809870e-1 3.595702e-1 -7.809869e-1 3.595702e-1 4.532318e-2 9.535225e-2
1.660000e10 6.153288e-2 8.446886e-2 -6.872807e-1 5.159210e-1 -6.872807e-1 5.159210e-1 6.153285e-2 8.446891e-2
1.670000e10 7.214044e-2 6.807603e-2 -5.627696e-1 6.493556e-1 -5.627696e-1 6.493555e-1 7.214042e-2 6.807608e-2
1.680000e10 7.513358e-2 4.890126e-2 -4.129101e-1 7.538637e-1 -4.129101e-1 7.538637e-1 7.513359e-2 4.890132e-2
1.690000e10 7.034423e-2 3.018718e-2 -2.437092e-1 8.245837e-1 -2.437092e-1 8.245837e-1 7.034425e-2 3.018724e-2
1.700000e10 5.793314e-2 1.500702e-2 -6.327517e-2 8.576818e-1 -6.327519e-2 8.576818e-1 5.793318e-2 1.500706e-2
1.710000e10 4.060986e-2 6.869752e-3 1.207263e-1 8.520837e-1 1.207263e-1 8.520837e-1 4.060991e-2 6.869779e-3
1.720000e10 2.180048e-2 6.338506e-3 3.000049e-1 8.066143e-1 3.000049e-1 8.066143e-1 2.180053e-2 6.338516e-3
1.730000e10 4.281072e-3 1.357895e-2 4.651866e-1 7.233205e-1 4.651865e-1 7.233205e-1 4.281126e-3 1.357894e-2
1.740000e10 -8.804584e-3 2.758807e-2 6.084967e-1 6.062084e-1 6.084966e-1 6.062083e-1 -8.804537e-3 2.758804e-2
1.750000e10 -1.479973e-2 4.594246e-2 7.225705e-1 4.606541e-1 7.225704e-1 4.606541e-1 -1.479969e-2 4.594242e-2
1.760000e10 -1.270263e-2 6.522821e-2 8.015252e-1 2.942614e-1 8.015252e-1 2.942614e-1 -1.270261e-2 6.522816e-2
1.770000e10 -2.602976e-3 8.195679e-2 8.406225e-1 1.159121e-1 8.406225e-1 1.159121e-1 -2.602969e-3 8.195675e-2
1.780000e10 1.308537e-2 9.306082e-2 8.398845e-1 -6.058576e-2 8.398845e-1 -6.058573e-2 1.308536e-2 9.306078e-2
1.790000e10 3.246691e-2 9.728913e-2 8.094041e-1 -2.298926e-1 8.094040e-1 -2.298925e-1 3.246689e-2 9.728910e-2
1.800000e10 5.187656e-2 9.241662e-2 7.470920e-1 -3.950866e-1 7.470920e-1 -3.950866e-1 5.187653e-2 9.241659e-2
1.810000e10 6.703151e-2 8.053482e-2 6.483512e-1 -5.457730e-1 6.483511e-1 -5.457730e-1 6.703148e-2 8.053480e-2
1.820000e10 7.629370e-2 6.360364e-2 5.187019e-1 -6.720125e-1 5.187019e-1 -6.720125e-1 7.629367e-2 6.360364e-2
1.830000e10 7.772153e-2 4.450301e-2 3.646407e-1 -7.677783e-1 3.646407e-1 -7.677782e-1 7.772151e-2 4.450302e-2
1.840000e10 7.129239e-2 2.645719e-2 1.932621e-1 -8.287453e-1 1.932621e-1 -8.287453e-1 7.129237e-2 2.645721e-2
1.850000e10 5.788508e-2 1.275412e-2 1.231347e-2 -8.516462e-1 1.231350e-2 -8.516462e-1 5.788507e-2 1.275415e-2
1.860000e10 3.995720e-2 5.710241e-3 -1.698293e-1 -8.353611e-1 -1.698293e-1 -8.353611e-1 3.995720e-2 5.710269e-3
1.870000e10 2.039106e-2 7.023343e-3 -3.447311e-1 -7.798587e-1 -3.447311e-1 -7.798586e-1 2.039107e-2 7.023369e-3
1.880000e10 3.304992e-3 1.652385e-2 -5.033343e-1 -6.876989e-1 -5.033343e-1 -6.876989e-1 3.305015e-3 1.652388e-2
1.890000e10 -8.461408e-3 3.230882e-2 -6.380927e-1 -5.636547e-1 -6.380927e-1 -5.636547e-1 -8.461378e-3 3.230883e-2
1.900000e10 -1.267726e-2 5.177575e-2 -7.427005e-1 -4.138046e-1 -7.427005e-1 -4.138046e-1 -1.267723e-2 5.177576e-2
1.910000e10 -8.529610e-3 7.145147e-2 -8.123897e-1 -2.455639e-1 -8.123896e-1 -2.455639e-1 -8.529573e-3 7.145146e-2
1.920000e10 3.399799e-3 8.789133e-2 -8.444431e-1 -6.708231e-2 -8.444430e-1 -6.708234e-2 3.399835e-3 8.789132e-2
1.930000e10 2.105819e-2 9.813418e-2 -8.378870e-1 1.133371e-1 -8.378869e-1 1.133370e-1 2.105822e-2 9.813416e-2
1.940000e10 4.133472e-2 1.003916e-1 -7.938092e-1 2.876070e-1 -7.938092e-1 2.876070e-1 4.133475e-2 1.003916e-1
1.950000e10 6.077485e-2 9.447114e-2 -7.144064e-1 4.485434e-1 -7.144064e-1 4.485434e-1 6.077488e-2 9.447111e-2
1.960000e10 7.631594e-2 8.126857e-2 -6.031907e-1 5.891664e-1 -6.031907e-1 5.891663e-1 7.631596e-2 8.126854e-2
1.970000e10 8.512991e-2 6.296518e-2 -4.649168e-1 7.034975e-1 -4.649168e-1 7.034974e-1 8.512993e-2 6.296515e-2
1.980000e10 8.588963e-2 4.275090e-2 -3.055397e-1 7.864089e-1 -3.055398e-1 7.864088e-1 8.588965e-2 4.275086e-2
1.990000e10 7.818135e-2 2.384159e-2 -1.316118e-1 8.342340e-1 -1.316118e-1 8.342339e-1 7.818136e-2 2.384155e-2
2.000000e10 6.319021e-2 1.013002e-2 4.939419e-2 8.437762e-1 4.939416e-2 8.437762e-1 6.319021e-2 1.012998e-2
2.010000e10 4.410123e-2 3.968773e-3 2.286385e-1 8.140898e-1 2.286384e-1 8.140898e-1 4.410123e-2 3.968731e-3
2.020000e10 2.408837e-2 6.336573e-3 3.975935e-1 7.462738e-1 3.975934e-1 7.462738e-1 2.408836e-2 6.336530e-3
2.030000e10 6.971863e-3 1.694967e-2 5.478262e-1 6.434790e-1 5.478262e-1 6.434790e-1 6.971848e-3 1.694963e-2
2.040000e10 -4.305015e-3 3.374455e-2 6.722235e-1 5.108082e-1 6.722235e-1 5.108082e-1 -4.305036e-3 3.374451e-2
2.050000e10 -7.591442e-3 5.398414e-2 7.647964e-1 3.546636e-1 7.647964e-1 3.546636e-1 -7.591470e-3 5.398411e-2
2.060000e10 -2.172633e-3 7.389285e-2 8.213640e-1 1.828850e-1 8.213640e-1 1.828851e-1 -2.172665e-3 7.389282e-2
2.070000e10 1.103602e-2 9.000333e-2 8.397972e-1 3.755572e-3 8.397971e-1 3.755600e-3 1.103599e-2 9.000331e-2
2.080000e10 2.974997e-2 9.937474e-2 8.198661e-1 -1.743967e-1 8.198660e-1 -1.743967e-1 2.974993e-2 9.937473e-2
2.090000e10 5.072768e-2 1.004155e-1 7.630488e-1 -3.436399e-1 7.630488e-1 -3.436398e-1 5.072764e-2 1.004155e-1
2.100000e10 7.029402e-2 9.296886e-2 6.723974e-1 -4.967943e-1 6.723973e-1 -4.967942e-1 7.029398e-2 9.296886e-2
2.110000e10 8.542907e-2 7.839337e-2 5.519028e-1 -6.276602e-1 5.519028e-1 -6.276601e-1 8.542904e-2 7.839338e-2
2.120000e10 9.327835e-2 5.862807e-2 4.064160e-1 -7.306566e-1 4.064160e-1 -7.306566e-1 9.327833e-2 5.862809e-2
2.130000e10 9.212740e-2 3.775648e-2 2.419048e-1 -8.007288e-1 2.419048e-1 -8.007288e-1 9.212739e-2 3.775650e-2
2.140000e10 8.284408e-2 1.933850e-2 6.601608e-2 -8.343371e-1 6.601611e-2 -8.343371e-1 8.284406e-2 1.933852e-2
2.150000e10 6.676903e-2 6.335177e-3 -1.136362e-1 -8.299104e-1 -1.136361e-1 -8.299104e-1 6.676903e-2 6.335200e-3
2.160000e10 4.674332e-2 1.248635e-3 -2.887718e-1 -7.867904e-1 -2.887717e-1 -7.867904e-1 4.674332e-2 1.248657e-3
2.170000e10 2.636746e-2 5.070985e-3 -4.508596e-1 -7.067077e-1 -4.508595e-1 -7.067077e-1 2.636747e-2 5.071005e-3
2.180000e10 9.449803e-3 1.717551e-2 -5.918313e-1 -5.931443e-1 -5.918312e-1 -5.931443e-1 9.449819e-3 1.717552e-2
2.190000e10 -9.018095e-4 3.542685e-2 -7.046592e-1 -4.517961e-1 -7.046591e-1 -4.517961e-1 -9.017881e-4 3.542686e-2
2.200000e10 -2.600266e-3 5.648753e-2 -7.838446e-1 -2.896537e-1 -7.838446e-1 -2.896537e-1 -2.600241e-3 5.648753e-2
2.210000e10 4.582884e-3 7.645434e-2 -8.260135e-1 -1.151111e-1 -8.260134e-1 -1.151112e-1 4.582911e-3 7.645434e-2
2.220000e10 1.939617e-2 9.188847e-2 -8.298688e-1 6.372362e-2 -8.298688e-1 6.372358e-2 1.939620e-2 9.188846e-2
2.230000e10 3.937760e-2 1.001012e-1 -7.957121e-1 2.383828e-1 -7.957121e-1 2.383828e-1 3.937763e-2 1.001012e-1
2.240000e10 6.119085e-2 9.943049e-2 -7.258779e-1 4.013974e-1 -7.258779e-1 4.013974e-1 6.119088e-2 9.943047e-2
2.250000e10 8.069660e-2 8.994613e-2 -6.233997e-1 5.458069e-1 -6.233997e-1 5.458068e-1 8.069662e-2 8.994610e-2
2.260000e10 9.475433e-2 7.369870e-2 -4.930680e-1 6.652004e-1 -4.930680e-1 6.652003e-1 9.475435e-2 7.369867e-2
2.270000e10 1.012077e-1 5.314128e-2 -3.406910e-1 7.547306e-1 -3.406910e-1 7.547305e-1 1.012077e-1 5.314125e-2
2.280000e10 9.873027e-2 3.180051e-2 -1.723904e-1 8.104482e-1 -1.723904e-1 8.104482e-1 9.873028e-2 3.180047e-2
2.290000e10 8.779215e-2 1.336736e-2 4.490062e-3 8.292275e-1 4.490028e-3 8.292274e-1 8.779215e-2 1.336732e-2
2.300000e10 7.011489e-2 1.171991e-3 1.820647e-1 8.098310e-1 1.820646e-1 8.098310e-1 7.011489e-2 1.171946e-3
2.310000e10 4.898968e-2 -2.332190e-3 3.519978e-1 7.522299e-1 3.519978e-1 7.522299e-1 4.898967e-2 -2.332234e-3
2.320000e10 2.847613e-2 3.430296e-3 5.056206e-1 6.588621e-1 5.056206e-1 6.588621e-1 2.847611e-2 3.430254e-3
2.330000e10 1.222143e-2 1.728579e-2 6.353390e-1 5.342032e-1 6.353390e-1 5.342032e-1 1.222141e-2 1.728575e-2
2.340000e10 3.206486e-3 3.698670e-2 7.347196e-1 3.842853e-1 7.347195e-1 3.842853e-1 3.206459e-3 3.698666e-2
2.350000e10 3.370418e-3 5.891957e-2 7.987688e-1 2.166728e-1 7.987688e-1 2.166728e-1 3.370388e-3 5.891954e-2
2.360000e10 1.281226e-2 7.911529e-2 8.249095e-1 3.985418e-2 8.249094e-1 3.985421e-2 1.281223e-2 7.911527e-2
2.370000e10 2.994196e-2 9.372806e-2 8.121727e-1 -1.377764e-1 8.121726e-1 -1.377763e-1 2.994193e-2 9.372804e-2
2.380000e10 5.166992e-2 1.005269e-1 7.619091e-1 -3.074827e-1 7.619091e-1 -3.074827e-1 5.166989e-2 1.005269e-1
2.390000e10 7.500121e-2 9.813027e-2 6.771216e-1 -4.620877e-1 6.771216e-1 -4.620877e-1 7.500119e-2 9.813025e-2
2.400000e10 9.580849e-2 8.644121e-2 5.617795e-1 -5.947130e-1 5.617795e-1 -5.947130e-1 9.580846e-2 8.644120e-2
2.410000e10 1.107261e-1 6.713957e-2 4.212261e-1 -6.999443e-1 4.212261e-1 -6.999443e-1 1.107261e-1 6.713955e-2
2.420000e10 1.168090e-1 4.314413e-2 2.609500e-1 -7.728845e-1 2.609500e-1 -7.728845e-1 1.168090e-1 4.314412e-2
2.430000e10 1.132523e-1 1.833321e-2 8.826193e-2 -8.088895e-1 8.826196e-2 -8.088895e-1 1.132522e-1 1.833320e-2
2.440000e10 9.993952e-2 -4.229473e-3 -8.767046e-2 -8.053654e-1 -8.767042e-2 -8.053653e-1 9.993949e-2 -4.229490e-3
2.450000e10 7.653206e-2 -2.067096e-2 -2.558470e-1 -7.615537e-1 -2.558470e-1 -7.615537e-1 7.653203e-2 -2.067098e-2
2.460000e10 4.520903e-2 -2.282374e-2 -4.025461e-1 -6.857431e-1 -4.025461e-1 -6.857431e-1 4.520899e-2 -2.282376e-2
2.470000e10 2.021600e-2 -6.979846e-3 -5.314468e-1 -5.930308e-1 -5.314467e-1 -5.930307e-1 2.021596e-2 -6.979861e-3
2.480000e10 9.028950e-3 1.341025e-2 -6.503784e-1 -4.747419e-1 -6.503784e-1 -4.747419e-1 9.028908e-3 1.341024e-2
2.490000e10 4.572431e-3 3.317793e-2 -7.426528e-1 -3.253058e-1 -7.426527e-1 -3.253058e-1 4.572386e-3 3.317792e-2
2.500000e10 7.353580e-3 5.370394e-2 -7.980212e-1 -1.573235e-1 -7.980211e-1 -1.573236e-1 7.353533e-3 5.370394e-2
2.510000e10 1.804903e-2 7.134593e-2 -8.142382e-1 1.929000e-2 -8.142382e-1 1.928996e-2 1.804898e-2 7.134594e-2
2.520000e10 3.490701e-2 8.310359e-2 -7.909743e-1 1.947771e-1 -7.909743e-1 1.947770e-1 3.490697e-2 8.310360e-2
2.530000e10 5.458644e-2 8.698052e-2 -7.297265e-1 3.605263e-1 -7.297265e-1 3.605262e-1 5.458640e-2 8.698054e-2
2.540000e10 7.420731e-2 8.315567e-2 -6.346312e-1 5.078816e-1 -6.346312e-1 5.078815e-1 7.420727e-2 8.315569e-2
2.550000e10 9.093943e-2 7.154581e-2 -5.111367e-1 6.314327e-1 -5.111367e-1 6.314326e-1 9.093940e-2 7.154583e-2
2.560000e10 1.013983e-1 5.405803e-2 -3.643954e-1 7.259520e-1 -3.643954e-1 7.259520e-1 1.013983e-1 5.405806e-2
2.570000e10 1.038051e-1 3.384749e-2 -2.009107e-1 7.874218e-1 -2.009107e-1 7.874217e-1 1.038051e-1 3.384751e-2
2.580000e10 9.767450e-2 1.445772e-2 -2.769255e-2 8.128002e-1 -2.769258e-2 8.128002e-1 9.767447e-2 1.445775e-2
2.590000e10 8.410113e-2 -6.182397e-4 1.475218e-1 8.006641e-1 1.475217e-1 8.006640e-1 8.410111e-2 -6.182116e-4
2.600000e10 6.547506e-2 -8.703573e-3 3.166653e-1 7.508465e-1 3.166652e-1 7.508465e-1 6.547504e-2 -8.703545e-3
2.610000e10 4.508719e-2 -8.150183e-3 4.714502e-1 6.653978e-1 4.714501e-1 6.653978e-1 4.508717e-2 -8.150153e-3
2.620000e10 2.687414e-2 1.045706e-3 6.042880e-1 5.479519e-1 6.042879e-1 5.479519e-1 2.687413e-2 1.045737e-3
2.630000e10 1.429796e-2 1.716292e-2 7.083176e-1 4.042025e-1 7.083176e-1 4.042025e-1 1.429795e-2 1.716295e-2
2.640000e10 9.791245e-3 3.699877e-2 7.783716e-1 2.410704e-1 7.783716e-1 2.410704e-1 9.791239e-3 3.699880e-2
2.650000e10 1.376593e-2 5.695188e-2 8.106355e-1 6.697029e-2 8.106355e-1 6.697032e-2 1.376593e-2 5.695192e-2
2.660000e10 2.583023e-2 7.380440e-2 8.042987e-1 -1.089852e-1 8.042986e-1 -1.089852e-1 2.583024e-2 7.380443e-2
2.670000e10 4.399027e-2 8.415218e-2 7.604746e-1 -2.786249e-1 7.604746e-1 -2.786248e-1 4.399029e-2 8.415221e-2
2.680000e10 6.489072e-2 8.620322e-2 6.817344e-1 -4.342037e-1 6.817344e-1 -4.342037e-1 6.489074e-2 8.620324e-2
2.690000e10 8.491844e-2 7.954552e-2 5.722346e-1 -5.689612e-1 5.722346e-1 -5.689611e-1 8.491847e-2 7.954554e-2
2.700000e10 1.005891e-1 6.538485e-2 4.371108e-1 -6.772679e-1 4.371108e-1 -6.772678e-1 1.005891e-1 6.538487e-2
2.710000e10 1.092586e-1 4.608991e-2 2.823916e-1 -7.546104e-1 2.823917e-1 -7.546103e-1 1.092587e-1 4.608992e-2
2.720000e10 1.094023e-1 2.499999e-2 1.147126e-1 -7.976829e-1 1.147126e-1 -7.976829e-1 1.094024e-1 2.499998e-2
2.730000e10 1.010162e-1 5.724098e-3 -5.876732e-2 -8.043606e-1 -5.876727e-2 -8.043606e-1 1.010163e-1 5.724075e-3
2.740000e10 8.553600e-2 -8.301506e-3 -2.303999e-1 -7.737103e-1 -2.303999e-1 -7.737103e-1 8.553603e-2 -8.301542e-3
2.750000e10 6.585046e-2 -1.458498e-2 -3.919945e-1 -7.065583e-1 -3.919944e-1 -7.065583e-1 6.585048e-2 -1.458503e-2
2.760000e10 4.555515e-2 -1.216469e-2 -5.357519e-1 -6.056058e-1 -5.357518e-1 -6.056057e-1 4.555515e-2 -1.216474e-2
2.770000e10 2.818221e-2 -1.567258e-3 -6.542175e-1 -4.753052e-1 -6.542174e-1 -4.753052e-1 2.818220e-2 -1.567311e-3
2.780000e10 1.693147e-2 1.541211e-2 -7.412955e-1 -3.221399e-1 -7.412955e-1 -3.221399e-1 1.693144e-2 1.541206e-2
2.790000e10 1.399196e-2 3.553421e-2 -7.926054e-1 -1.537419e-1 -7.926054e-1 -1.537419e-1 1.399191e-2 3.553417e-2
2.800000e10 1.984216e-2 5.504916e-2 -8.057776e-1 2.134104e-2 -8.057776e-1 2.134100e-2 1.984211e-2 5.504913e-2
2.810000e10 3.342309e-2 7.034307e-2 -7.805711e-1 1.944076e-1 -7.805711e-1 1.944076e-1 3.342302e-2 7.034305e-2
2.820000e10 5.221562e-2 7.863538e-2 -7.188527e-1 3.571360e-1 -7.188527e-1 3.571359e-1 5.221555e-2 7.863537e-2
2.830000e10 7.287321e-2 7.846226e-2 -6.240867e-1 5.021715e-1 -6.240867e-1 5.021714e-1 7.287315e-2 7.846227e-2
2.840000e10 9.176493e-2 6.985655e-2 -5.010925e-1 6.231501e-1 -5.010925e-1 6.231500e-1 9.176487e-2 6.985658e-2
2.850000e10 1.056721e-1 5.428857e-2 -3.557706e-1 7.150519e-1 -3.557706e-1 7.150518e-1 1.056721e-1 5.428860e-2
2.860000e10 1.121244e-1 3.427734e-2 -1.944947e-1 7.743335e-1 -1.944947e-1 7.743334e-1 1.121243e-1 3.427738e-2
2.870000e10 1.097764e-1 1.347848e-2 -2.390392e-2 7.980986e-1 -2.390395e-2 7.980985e-1 1.097764e-1 1.347853e-2
2.880000e10 9.945835e-2 -4.317627e-3 1.480790e-1 7.848299e-1 1.480790e-1 7.848299e-1 9.945833e-2 -4.317584e-3
2.890000e10 8.305870e-2 -1.649179e-2 3.137152e-1 7.350004e-1 3.137151e-1 7.350004e-1 8.305869e-2 -1.649175e-2
2.900000e10 6.322644e-2 -2.093441e-2 4.652233e-1 6.503308e-1 4.652232e-1 6.503308e-1 6.322643e-2 -2.093437e-2
2.910000e10 4.343145e-2 -1.689233e-2 5.951339e-1 5.344211e-1 5.951338e-1 5.344210e-1 4.343145e-2 -1.689231e-2
2.920000e10 2.722189e-2 -5.010269e-3 6.967509e-1 3.926270e-1 6.967508e-1 3.926270e-1 2.722189e-2 -5.010250e-3
2.930000e10 1.753032e-2 1.238474e-2 7.648555e-1 2.318457e-1 7.648554e-1 2.318457e-1 1.753031e-2 1.238476e-2
2.940000e10 1.600866e-2 3.226666e-2 7.958365e-1 6.017238e-2 7.958365e-1 6.017242e-2 1.600865e-2 3.226667e-2
2.950000e10 2.306690e-2 5.086351e-2 7.883391e-1 -1.136348e-1 7.883390e-1 -1.136347e-1 2.306688e-2 5.086352e-2
2.960000e10 3.735136e-2 6.474595e-2 7.432771e-1 -2.807561e-1 7.432770e-1 -2.807560e-1 3.735133e-2 6.474597e-2
2.970000e10 5.583578e-2 7.078440e-2 6.633026e-1 -4.339113e-1 6.633025e-1 -4.339112e-1 5.583574e-2 7.078443e-2
2.980000e10 7.370830e-2 6.965250e-2 5.512249e-1 -5.644792e-1 5.512249e-1 -5.644791e-1 7.370826e-2 6.965253e-2
2.990000e10 9.127618e-2 6.348627e-2 4.166578e-1 -6.649143e-1 4.166578e-1 -6.649143e-1 9.127614e-2 6.348631e-2
3.000000e10 1.072703e-1 4.889188e-2 2.678135e-1 -7.365109e-1 2.678135e-1 -7.365108e-1 1.072702e-1 4.889193e-2
3.010000e10 1.147174e-1 2.684641e-2 1.064906e-1 -7.784879e-1 1.064907e-1 -7.784879e-1 1.147173e-1 2.684647e-2
3.020000e10 1.108170e-1 4.213727e-3 -6.291649e-2 -7.861067e-1 -6.291645e-2 -7.861067e-1 1.108170e-1 4.213801e-3
3.030000e10 9.797194e-2 -1.357319e-2 -2.319996e-1 -7.561054e-1 -2.319995e-1 -7.561054e-1 9.797193e-2 -1.357311e-2
3.040000e10 7.966040e-2 -2.399778e-2 -3.912747e-1 -6.891561e-1 -3.912746e-1 -6.891560e-1 7.966040e-2 -2.399770e-2
3.050000e10 5.930762e-2 -2.584134e-2 -5.325328e-1 -5.883547e-1 -5.325327e-1 -5.883547e-1 5.930764e-2 -2.584126e-2
3.060000e10 4.066486e-2 -1.921362e-2 -6.483026e-1 -4.584663e-1 -6.483025e-1 -4.584663e-1 4.066489e-2 -1.921353e-2
3.070000e10 2.688042e-2 -5.904663e-3 -7.326112e-1 -3.061732e-1 -7.326111e-1 -3.061732e-1 2.688047e-2 -5.904584e-3
3.080000e10 1.993407e-2 1.164607e-2 -7.813535e-1 -1.389937e-1 -7.813534e-1 -1.389938e-1 1.993413e-2 1.164614e-2
3.090000e10 2.115024e-2 3.031924e-2 -7.919251e-1 3.468007e-2 -7.919250e-1 3.468003e-2 2.115031e-2 3.031930e-2
3.100000e10 3.006110e-2 4.647340e-2 -7.640019e-1 2.059896e-1 -7.640018e-1 2.059896e-1 3.006118e-2 4.647344e-2
3.110000e10 4.485045e-2 5.742778e-2 -6.992873e-1 3.662737e-1 -6.992873e-1 3.662736e-1 4.485053e-2 5.742781e-2
3.120000e10 6.301639e-2 6.121879e-2 -6.017933e-1 5.077994e-1 -6.017933e-1 5.077993e-1 6.301646e-2 6.121881e-2
3.130000e10 8.121174e-2 5.702759e-2 -4.765662e-1 6.244013e-1 -4.765661e-1 6.244012e-1 8.121182e-2 5.702759e-2
3.140000e10 9.615983e-2 4.572910e-2 -3.297944e-1 7.108533e-1 -3.297944e-1 7.108532e-1 9.615990e-2 4.572910e-2
3.150000e10 1.053675e-1 2.922108e-2 -1.684615e-1 7.636378e-1 -1.684615e-1 7.636377e-1 1.053676e-1 2.922107e-2
3.160000e10 1.072745e-1 1.037618e-2 -8.211762e-5 7.804417e-1 -8.215773e-5 7.804416e-1 1.072746e-1 1.037617e-2
3.170000e10 1.017630e-1 -8.092792e-3 1.674232e-1 7.610500e-1 1.674232e-1 7.610499e-1 1.017630e-1 -8.092814e-3
3.180000e10 8.881219e-2 -2.325904e-2 3.270223e-1 7.064282e-1 3.270222e-1 7.064281e-1 8.881223e-2 -2.325906e-2
3.190000e10 7.058325e-2 -3.175205e-2 4.709195e-1 6.184609e-1 4.709194e-1 6.184608e-1 7.058328e-2 -3.175208e-2
3.200000e10 5.017842e-2 -3.223841e-2 5.919368e-1 5.020305e-1 5.919367e-1 5.020305e-1 5.017845e-2 -3.223843e-2
3.210000e10 3.083784e-2 -2.383410e-2 6.851132e-1 3.629630e-1 6.851131e-1 3.629630e-1 3.083785e-2 -2.383413e-2
3.220000e10 1.683622e-2 -7.399833e-3 7.466062e-1 2.077270e-1 7.466061e-1 2.077270e-1 1.683623e-2 -7.399859e-3
3.230000e10 1.157336e-2 1.392661e-2 7.743256e-1 4.294837e-2 7.743255e-1 4.294841e-2 1.157336e-2 1.392658e-2
3.240000e10 1.668202e-2 3.554081e-2 7.665252e-1 -1.249909e-1 7.665251e-1 -1.249908e-1 1.668202e-2 3.554079e-2
3.250000e10 3.109001e-2 5.231338e-2 7.221500e-1 -2.882600e-1 7.221499e-1 -2.882599e-1 3.109000e-2 5.231337e-2
3.260000e10 5.109230e-2 6.068706e-2 6.428378e-1 -4.381702e-1 6.428378e-1 -4.381701e-1 5.109229e-2 6.068706e-2
3.270000e10 7.224260e-2 5.966815e-2 5.326522e-1 -5.671841e-1 5.326522e-1 -5.671840e-1 7.224260e-2 5.966816e-2
3.280000e10 9.071346e-2 5.021327e-2 3.971165e-1 -6.690035e-1 3.971165e-1 -6.690034e-1 9.071346e-2 5.021329e-2
3.290000e10 1.036755e-1 3.426252e-2 2.429919e-1 -7.390561e-1 2.429919e-1 -7.390560e-1 1.036755e-1 3.426254e-2
3.300000e10 1.090128e-1 1.462036e-2 7.740095e-2 -7.743193e-1 7.740098e-2 -7.743192e-1 1.090128e-1 1.462039e-2
3.310000e10 1.060820e-1 -5.162964e-3 -9.208249e-2 -7.731016e-1 -9.208244e-2 -7.731015e-1 1.060820e-1 -5.162930e-3
3.320000e10 9.579689e-2 -2.183101e-2 -2.575134e-1 -7.352882e-1 -2.575133e-1 -7.352881e-1 9.579693e-2 -2.183097e-2
3.330000e10 8.006940e-2 -3.285678e-2 -4.112609e-1 -6.626743e-1 -4.112608e-1 -6.626742e-1 8.006945e-2 -3.285675e-2
3.340000e10 6.176895e-2 -3.653354e-2 -5.463452e-1 -5.580181e-1 -5.463451e-1 -5.580180e-1 6.176901e-2 -3.653352e-2
3.350000e10 4.403897e-2 -3.284861e-2 -6.555737e-1 -4.255715e-1 -6.555736e-1 -4.255714e-1 4.403905e-2 -3.284861e-2
3.360000e10 2.949973e-2 -2.239992e-2 -7.328890e-1 -2.720166e-1 -7.328889e-1 -2.720165e-1 2.949981e-2 -2.239993e-2
3.370000e10 2.103134e-2 -7.117399e-3 -7.745149e-1 -1.051202e-1 -7.745148e-1 -1.051203e-1 2.103142e-2 -7.117431e-3
3.380000e10 1.986134e-2 9.818439e-3 -7.782247e-1 6.690529e-2 -7.782246e-1 6.690524e-2 1.986141e-2 9.818389e-3
3.390000e10 2.590144e-2 2.530911e-2 -7.438303e-1 2.352799e-1 -7.438302e-1 2.352798e-1 2.590149e-2 2.530905e-2
3.400000e10 3.784290e-2 3.661399e-2 -6.732645e-1 3.915141e-1 -6.732644e-1 3.915140e-1 3.784294e-2 3.661391e-2
3.410000e10 5.334665e-2 4.158757e-2 -5.703440e-1 5.279284e-1 -5.703439e-1 5.279283e-1 5.334667e-2 4.158748e-2
3.420000e10 6.944291e-2 3.986087e-2 -4.406172e-1 6.376786e-1 -4.406171e-1 6.376784e-1 6.944291e-2 3.986079e-2
3.430000e10 8.399528e-2 3.121170e-2 -2.914046e-1 7.165154e-1 -2.914046e-1 7.165153e-1 8.399525e-2 3.121162e-2
3.440000e10 9.311267e-2 1.680554e-2 -1.286418e-1 7.615102e-1 -1.286419e-1 7.615101e-1 9.311264e-2 1.680547e-2
3.450000e10 9.561059e-2 3.722903e-4 3.960992e-2 7.695614e-1 3.960987e-2 7.695613e-1 9.561055e-2 3.722398e-4
3.460000e10 9.149012e-2 -1.605651e-2 2.047816e-1 7.410200e-1 2.047816e-1 7.410199e-1 9.149007e-2 -1.605655e-2
3.470000e10 8.086412e-2 -2.966262e-2 3.588163e-1 6.777505e-1 3.588162e-1 6.777504e-1 8.086406e-2 -2.966264e-2
3.480000e10 6.526803e-2 -3.789069e-2 4.949228e-1 5.841488e-1 4.949226e-1 5.841487e-1 6.526798e-2 -3.789069e-2
3.490000e10 4.728434e-2 -3.856092e-2 6.083003e-1 4.649501e-1 6.083001e-1 4.649501e-1 4.728430e-2 -3.856091e-2
3.500000e10 3.102342e-2 -3.091393e-2 6.955030e-1 3.247048e-1 6.955029e-1 3.247048e-1 3.102340e-2 -3.091391e-2
3.510000e10 2.062646e-2 -1.720643e-2 7.521869e-1 1.669974e-1 7.521868e-1 1.669974e-1 2.062644e-2 -1.720641e-2
3.520000e10 1.741106e-2 -1.274580e-3 7.729730e-1 -1.626524e-3 7.729729e-1 -1.626481e-3 1.741105e-2 -1.274564e-3
3.530000e10 2.115175e-2 1.398312e-2 7.549799e-1 -1.718927e-1 7.549798e-1 -1.718926e-1 2.115175e-2 1.398313e-2
3.540000e10 3.082244e-2 2.591028e-2 6.989448e-1 -3.339493e-1 6.989447e-1 -3.339493e-1 3.082245e-2 2.591027e-2
3.550000e10 4.448232e-2 3.254364e-2 6.080654e-1 -4.791446e-1 6.080653e-1 -4.791445e-1 4.448232e-2 3.254363e-2
3.560000e10 5.961938e-2 3.291062e-2 4.877765e-1 -6.000327e-1 4.877764e-1 -6.000325e-1 5.961937e-2 3.291061e-2
3.570000e10 7.378947e-2 2.699112e-2 3.443742e-1 -6.914395e-1 3.443742e-1 -6.914394e-1 7.378945e-2 2.699111e-2
3.580000e10 8.445864e-2 1.563533e-2 1.849022e-1 -7.491065e-1 1.849022e-1 -7.491064e-1 8.445861e-2 1.563532e-2
3.590000e10 8.982273e-2 7.954071e-4 1.703041e-2 -7.707738e-1 1.703045e-2 -7.707737e-1 8.982270e-2 7.954089e-4
3.600000e10 8.887842e-2 -1.517836e-2 -1.513444e-1 -7.554217e-1 -1.513444e-1 -7.554216e-1 8.887839e-2 -1.517834e-2
3.610000e10 8.172630e-2 -2.954316e-2 -3.123145e-1 -7.040389e-1 -3.123144e-1 -7.040388e-1 8.172627e-2 -2.954313e-2
3.620000e10 6.955900e-2 -3.994998e-2 -4.584422e-1 -6.188564e-1 -4.584421e-1 -6.188563e-1 6.955898e-2 -3.994993e-2
3.630000e10 5.449467e-2 -4.460000e-2 -5.827347e-1 -5.037110e-1 -5.827346e-1 -5.037109e-1 5.449466e-2 -4.459995e-2
3.640000e10 3.927608e-2 -4.294354e-2 -6.788821e-1 -3.638497e-1 -6.788820e-1 -3.638497e-1 3.927609e-2 -4.294348e-2
3.650000e10 2.645720e-2 -3.555030e-2 -7.420539e-1 -2.062590e-1 -7.420538e-1 -2.062590e-1 2.645723e-2 -3.555024e-2
3.660000e10 1.824770e-2 -2.406735e-2 -7.692789e-1 -3.843206e-2 -7.692788e-1 -3.843209e-2 1.824775e-2 -2.406731e-2
3.670000e10 1.556284e-2 -1.091328e-2 -7.588438e-1 1.317807e-1 -7.588437e-1 1.317807e-1 1.556291e-2 -1.091325e-2
3.680000e10 1.853988e-2 1.925372e-3 -7.105756e-1 2.955424e-1 -7.105755e-1 2.955423e-1 1.853994e-2 1.925371e-3
3.690000e10 2.685511e-2 1.202122e-2 -6.273320e-1 4.442372e-1 -6.273319e-1 4.442371e-1 2.685517e-2 1.202120e-2
3.700000e10 3.876628e-2 1.734073e-2 -5.133375e-1 5.706818e-1 -5.133374e-1 5.706817e-1 3.876632e-2 1.734068e-2
3.710000e10 5.203292e-2 1.683256e-2 -3.745130e-1 6.685441e-1 -3.745130e-1 6.685439e-1 5.203294e-2 1.683249e-2
3.720000e10 6.408902e-2 1.043475e-2 -2.177673e-1 7.332712e-1 -2.177673e-1 7.332711e-1 6.408901e-2 1.043468e-2
3.730000e10 7.261670e-2 -7.582346e-4 -5.091966e-2 7.617011e-1 -5.091970e-2 7.617009e-1 7.261666e-2 -7.583001e-4
3.740000e10 7.627206e-2 -1.482300e-2 1.177184e-1 7.525774e-1 1.177183e-1 7.525772e-1 7.627200e-2 -1.482305e-2
3.750000e10 7.436970e-2 -3.006495e-2 2.797771e-1 7.067492e-1 2.797770e-1 7.067491e-1 7.436961e-2 -3.006497e-2
3.760000e10 6.657777e-2 -4.412851e-2 4.278182e-1 6.264278e-1 4.278181e-1 6.264277e-1 6.657767e-2 -4.412850e-2
3.770000e10 5.394755e-2 -5.485641e-2 5.542754e-1 5.153304e-1 5.542752e-1 5.153303e-1 5.394745e-2 -5.485636e-2
3.780000e10 3.814699e-2 -6.087900e-2 6.531515e-1 3.787853e-1 6.531513e-1 3.787853e-1 3.814690e-2 -6.087890e-2
3.790000e10 2.067202e-2 -6.191156e-2 7.185694e-1 2.228202e-1 7.185692e-1 2.228202e-1 2.067196e-2 -6.191143e-2
3.800000e10 2.502875e-3 -5.711077e-2 7.458982e-1 5.602728e-2 7.458980e-1 5.602730e-2 2.502853e-3 -5.711062e-2
3.810000e10 -1.435406e-2 -4.574752e-2 7.327870e-1 -1.116165e-1 7.327869e-1 -1.116164e-1 -1.435404e-2 -4.574736e-2
3.820000e10 -2.754377e-2 -2.722751e-2 6.797342e-1 -2.684809e-1 6.797341e-1 -2.684808e-1 -2.754370e-2 -2.722736e-2
3.830000e10 -3.246704e-2 -1.513133e-3 5.922600e-1 -4.016275e-1 5.922599e-1 -4.016274e-1 -3.246694e-2 -1.513004e-3
3.840000e10 -2.221275e-2 2.643437e-2 4.857239e-1 -5.014695e-1 4.857238e-1 -5.014693e-1 -2.221261e-2 2.643446e-2
3.850000e10 3.658159e-3 4.330323e-2 3.784899e-1 -5.765100e-1 3.784899e-1 -5.765099e-1 3.658307e-3 4.330329e-2
3.860000e10 3.184156e-2 4.080703e-2 2.657790e-1 -6.445633e-1 2.657790e-1 -6.445632e-1 3.184171e-2 4.080707e-2
3.870000e10 4.958666e-2 2.532290e-2 1.309789e-1 -6.995127e-1 1.309789e-1 -6.995125e-1 4.958681e-2 2.532290e-2
3.880000e10 5.508975e-2 7.492135e-3 -2.329050e-2 -7.240925e-1 -2.329045e-2 -7.240923e-1 5.508990e-2 7.492108e-3
3.890000e10 5.247900e-2 -7.465887e-3 -1.851552e-1 -7.106500e-1 -1.851551e-1 -7.106499e-1 5.247914e-2 -7.465940e-3
3.900000e10 4.476602e-2 -1.819054e-2 -3.425890e-1 -6.573105e-1 -3.425889e-1 -6.573104e-1 4.476614e-2 -1.819062e-2
3.910000e10 3.415677e-2 -2.377432e-2 -4.837173e-1 -5.667766e-1 -4.837171e-1 -5.667765e-1 3.415686e-2 -2.377440e-2
3.920000e10 2.312757e-2 -2.390268e-2 -5.998192e-1 -4.460477e-1 -5.998190e-1 -4.460477e-1 2.312764e-2 -2.390277e-2
3.930000e10 1.375092e-2 -1.953818e-2 -6.855687e-1 -3.020242e-1 -6.855686e-1 -3.020242e-1 1.375097e-2 -1.953827e-2
3.940000e10 7.393208e-3 -1.155998e-2 -7.365871e-1 -1.425796e-1 -7.365869e-1 -1.425796e-1 7.393247e-3 -1.156007e-2
3.950000e10 5.547401e-3 -1.934383e-3 -7.509368e-1 2.444613e-2 -7.509367e-1 2.444607e-2 5.547433e-3 -1.934460e-3
3.960000e10 7.768016e-3 7.265540e-3 -7.272989e-1 1.906547e-1 -7.272987e-1 1.906546e-1 7.768046e-3 7.265465e-3
3.970000e10 1.368488e-2 1.481694e-2 -6.670451e-1 3.473052e-1 -6.670450e-1 3.473051e-1 1.368491e-2 1.481686e-2
3.980000e10 2.231381e-2 1.925748e-2 -5.733078e-1 4.862003e-1 -5.733077e-1 4.862002e-1 2.231383e-2 1.925739e-2
3.990000e10 3.219180e-2 1.981953e-2 -4.514683e-1 6.004496e-1 -4.514683e-1 6.004495e-1 3.219182e-2 1.981944e-2
4.000000e10 4.174224e-2 1.643462e-2 -3.079198e-1 6.847436e-1 -3.079198e-1 6.847434e-1 4.174224e-2 1.643450e-2
