!Coilcraft BCL-162 Jan 11, 2013

!freq-unit  param-type  data-format  keyword  impedance-ohms
# GHz           S          DB           R         50
!-----------------------------------------------------------------------------
!Freq              DBS11           AngS11            DBS21           AngS21            DBS12           AngS12            DBS22           AngS22
 0.05            -25.7194811       90.9700525      -0.0204603473     2.28781414      -0.0822064301     2.54963664      -25.7154932       94.728536       
 0.55            -36.4624996      -128.208761      -0.0132712269    -0.78170041      -0.0264677296    -0.795290059     -36.4470098      -71.691838       
 1.05            -29.9183417      -178.410502      -0.135888609     -1.28633999      -0.13765772      -1.32969843      -30.0366505      -71.3316483      
 1.55            -32.5399901       169.102616      -0.0945029158    -0.935116216     -0.0707200642    -0.882535503     -32.8930224      -38.2885986      
 2.05            -30.1445958       134.538667      -0.157704228     -1.17384516      -0.147893981     -1.15623529      -30.1642496      -22.3466253      
 2.55            -30.3500713       114.18291       -0.141736424     -1.00574712      -0.177926028     -1.18040287      -30.3246084      -2.20112218      
 3.05            -28.5428321       81.3032911      -0.194091825     -1.27489589      -0.255284595     -1.39452071      -27.8644115       20.4264827      
 3.55            -27.6564927       61.4881318      -0.226651467     -1.65932369      -0.217263509     -1.60059251      -26.898127        49.8447132      
 4.05            -28.8016605       39.9675881      -0.191120047     -1.47123283      -0.172357977     -1.49646039      -27.6272121       77.2788973      
 4.55            -28.2324047       10.0783514      -0.220114042     -1.62613776      -0.237002529     -1.48162925      -26.4505995       98.5904498      
 5.05            -27.2638246      -17.9161582      -0.240676329     -1.37008761      -0.278977563     -1.83883007      -25.1070101       121.987015      
 5.55            -26.8880249      -35.6920324      -0.260286635     -2.0239512       -0.224952978     -1.73938009      -24.5761021       150.704379      
 6.05            -26.7414024      -60.1982515      -0.229176897     -1.98367662      -0.248171739     -1.82015869      -23.8986825       174.384053      
 6.55            -26.9330488      -88.9592858      -0.286858445     -1.82624647      -0.268606229     -1.81286501      -23.3363138      -165.678205      
 7.05            -26.0716866      -111.47266       -0.286790073     -2.05391264      -0.313820261     -2.17774099      -22.6521599      -140.6585        
 7.55            -26.9356038      -139.224385      -0.352949263     -2.1167638       -0.358333138     -2.05275691      -21.7344255      -118.042625      
 8.05            -26.0577988      -154.492868      -0.271908384     -2.14609216      -0.294408653     -2.08380866      -22.1877393      -95.2651793      
 8.55            -26.2154226      -179.6629        -0.330544672     -2.12156107      -0.374615413     -2.30663637      -21.9912926      -73.5289475      
 9.05            -26.1688087       155.615393      -0.369856162     -2.19646073      -0.367209938     -2.42350594      -21.7154251      -49.1459197      
 9.55            -26.492302        135.442627      -0.351595082     -2.42964003      -0.349506595     -2.20923261      -21.5767552      -24.1683764      
 10.05           -26.6886228       111.641889      -0.348493423     -2.51292678      -0.360223566     -2.43111542      -21.3440128      -0.778674317     
 10.55           -27.3816547       85.3799779      -0.380950437     -2.41396751      -0.398319591     -2.51883063      -21.2442174       21.9557443      
 11.05           -27.4916628       63.2703253      -0.378608281     -2.68351728      -0.387605282     -2.24642138      -21.0903686       44.8709077      
 11.55           -27.9290166       38.790117       -0.368783273     -2.40341969      -0.360019324     -2.65432363      -21.3418864       69.8664719      
 12.05           -28.5490951       14.4553599      -0.351694833     -2.49830517      -0.399620814     -2.57138575      -21.2730098       94.2955476      
 12.55           -28.5991352      -11.2286281      -0.379854733     -2.63953506      -0.393171693     -2.3109529       -21.054922        119.779759      
 13.05           -29.9465511      -40.5239655      -0.406830962     -2.52831798      -0.432288047     -2.30988797      -20.7730567       143.111388      
 13.55           -30.9968013      -50.9060505      -0.413180904     -2.46381879      -0.406157456     -2.3030231       -20.8502094       167.154012      
 14.05           -30.9288816      -65.9251312      -0.401922275     -2.03432007      -0.380840867     -2.25384473      -20.5885277      -171.198877      
 14.55           -28.6681648      -87.5512859      -0.3308954       -2.35530894      -0.329453704     -2.89387204      -21.1287058      -145.532882      
 15.05           -29.0512143      -115.641052      -0.441718934     -2.76958634      -0.348933133     -2.7950222       -20.6699481      -118.720102      
 15.55           -29.3155441      -135.386797      -0.356096109     -2.74956045      -0.410485398     -3.13749801      -20.4072046      -94.7875056      
 16.05           -29.0527184      -158.417921      -0.355239268     -3.05105483      -0.393512696     -3.31789815      -20.2150254      -71.1597748      
 16.55           -29.2802571       177.435888      -0.365642654     -3.50500652      -0.405425393     -3.38843251      -20.0333373      -48.7976337      
 17.05           -29.952176        157.226511      -0.353139628     -3.54626974      -0.446491216     -3.41345454      -20.288886       -27.3387521      
 17.55           -30.5746132       136.985621      -0.382965816     -3.70771653      -0.360940981     -3.60018176      -20.4539131      -4.51467099      
 18.05           -31.4995779       111.657617      -0.391836046     -3.75314426      -0.35364715      -3.47388248      -20.8199748       17.9450512      
 18.55           -32.0303886       84.3610319      -0.341551409     -3.30876182      -0.368332549     -3.82887509      -21.5134131       40.409694       
 19.05           -32.743596        56.1076247      -0.283114074     -3.61008671      -0.391124618     -3.47267022      -22.4820167       65.3520549      
 19.55           -33.0838778       24.3531653      -0.313368781     -3.3353952       -0.286942064     -3.64642863      -23.4019992       92.2452231      
 20.05           -33.4714471      -4.88856973      -0.322597487     -3.29810458      -0.280691423     -3.69273216      -24.5897178       125.221695      
 20.55           -33.3144957      -35.2539919      -0.338378582     -3.45002298      -0.240955645     -3.38068621      -24.3583853       158.800597      
 21.05           -32.1072983      -63.6440416      -0.400657045     -3.31784259      -0.294769463     -3.81876118      -24.1425955      -167.757861      
 21.55           -30.6405677      -101.807803      -0.346380755     -3.95020669      -0.270688753     -4.09200171      -23.2801155      -133.781502      
 22.05           -29.0684398      -133.91807       -0.283912576     -4.28073431      -0.338062278     -4.36385874      -22.269369       -108.83028       
 22.55           -28.8337188      -163.845329      -0.413336168     -4.60169355      -0.391866257     -4.16458772      -20.8736411      -84.7308387      
 23.05           -30.6077592       158.866096      -0.442838222     -4.94051812      -0.516007186     -4.26687637      -20.3412423      -66.8447137      
 23.55           -33.1582131       147.036914      -0.452687606     -4.36824819      -0.464371945     -4.4813929       -20.3807065      -47.9673962      
 24.05           -31.5792873       132.552385      -0.395496861     -4.63330028      -0.448751417     -4.96472736      -20.9650613      -25.0655589      
 24.55           -29.3736526       100.450584      -0.42863499      -4.90490379      -0.419541848     -5.38303481      -21.1506383       0.985392429     
 25.05           -29.0630509       68.3868717      -0.504094986     -5.12737235      -0.378172193     -6.0949305       -23.0389675       27.9116529      
 25.55           -30.994239        46.3787749      -0.66574555      -5.88329975      -0.480704901     -5.87733577      -22.1917662       59.4682212      
 26.05           -26.5860063       49.3800394      -0.401746017     -4.48720266      -0.514352771     -4.79351057      -21.1914499       80.6450954      
 26.55           -22.2650908       3.25326211      -0.264398629     -4.81174823      -0.26677188      -5.6776185       -22.0165766       113.540652      
 27.05           -21.6713861      -27.2528628      -0.76995842      -6.35479264      -0.266361556     -4.05832829      -20.8835646       155.637285      
 27.55           -21.4503702      -55.8452075      -0.62090627      -6.00003529      -0.267261103     -5.86709389      -19.5776257      -179.211222      
 28.05           -19.8185351      -73.7538486      -0.499240905     -7.24145856      -0.427303699     -8.0061761       -18.8372572      -158.183353      
 28.55           -17.8841086      -102.177605      -0.653318987     -8.12947095      -0.665779116     -8.3427308       -16.8470374      -140.495061      
 29.05           -17.3507401      -126.738039      -0.774288169     -8.75524562      -0.754433395     -8.99407354      -15.8352737      -123.027024      
 29.55           -16.9022875      -153.166606      -0.913741751     -7.48249937      -1.01215874      -8.05669276      -15.8768222      -105.057868      
 30.05           -16.4360071      -175.920723      -0.83818806      -6.97186827      -1.05749456      -7.0216427       -16.0285437      -86.9201853      
 30.55           -16.1684807       158.056915      -0.887913332     -6.05745742      -0.890916489     -6.47446872      -16.1854179      -69.5540534      
 31.05           -16.359274        129.726056      -0.812579155     -7.1699711       -0.805347623     -6.36210618      -17.1095689      -52.3704475      
 31.55           -17.5018033       104.047319      -0.755475389     -8.20359814      -0.849694033     -6.80256496      -18.6059642      -33.3526265      
 32.05           -19.0212753       79.3534349      -0.770132072     -7.73871324      -0.793363592     -6.38355376      -20.156829       -7.02759126      
 32.55           -19.6777117       53.1916344      -0.830453563     -6.09871198      -0.875290953     -6.1369687       -22.4610713       19.2137037      
 33.05           -20.2638024       16.528443       -0.750506395     -6.42054222      -0.512647131     -3.96674283      -24.2745201       47.6792439      
 33.55           -21.1711863      -11.2060891      -0.607628691     -5.2822085       -0.6165354       -4.70272201      -25.7067441       103.854255      
 34.05           -21.6234646      -44.4858443      -0.539156997     -5.84962324      -0.467137966     -3.97811128      -25.5561149       150.864353      
 34.55           -21.0509604      -75.6819114      -0.553238406     -4.77970774      -0.469442176     -5.0322831       -21.9147211      -166.382668      
 35.05           -21.0616239      -108.239455      -0.529559756     -5.35957984      -0.483612811     -6.07167963      -19.1359641      -142.533986      
 35.55           -20.7186351      -131.271718      -0.705059228     -6.09727718      -0.649033793     -6.86632691      -17.4038446      -116.478025      
 36.05           -19.3641594      -152.882359      -0.920884738     -7.33824665      -0.805473845     -6.7175467       -16.0944621      -95.8042246      
 36.55           -17.805394        179.424868      -1.04866788      -8.0154914       -0.91472618      -7.691282        -14.8792885      -75.944389       
 37.05           -17.105617        154.341514      -1.2513728       -8.18176621      -1.16203341      -8.22099241      -14.0129673      -57.4448392      
 37.55           -16.5767387       132.680548      -1.22357946      -8.22782371      -1.32163898      -9.23841335      -13.1855452      -39.1769151      
 38.05           -16.0673721       110.214349      -1.1349829       -8.28430422      -1.5156008       -9.79838454      -13.0790323      -18.2089984      
 38.55           -15.6375963       87.3046259      -1.29572078      -9.88115999      -1.38089429      -8.63988982      -12.9775498       2.3723172       
 39.05           -14.9751459       63.3980591      -1.33385063      -10.3991604      -1.44371942      -9.11747549      -12.8955774       23.8897406      
 39.55           -15.0802625       38.0928256      -1.30495816      -9.76635267      -1.45699447      -9.56076583      -12.8450877       47.2378763      
 40              -15.0099574       12.0240208      -1.33820724      -9.29306713      -1.4951287       -9.09469041      -13.1638533       68.4780385      
