!Murata Part Number: GRM155R71C104KA88
!These Parameters are Measured in Series Mode Connection
!       o--ll--o
!Port1            Port2
!       o------o
!Operation Temp=25[degC], DC Bias Voltage=0[V]
!Freq. Start=100[Hz] Stop=6[GHz], 401[Steps]
!Data Generated on Feb 4, 2025
# Hz S RI R 50
!Freq.(Hz) S11(Real) S11(Imag) S21(Real) S21(Imag) S12(Real) S12(Imag) S22(Real) S22(Imag)
100.0 0.9999293008668805 -0.006059006545486679 7.069913311957048E-5 0.006059006545486679 7.069913311957048E-5 0.006059006545486679 0.9999293008668805 -0.006059006545486679
104.57921513303334 0.9999243824583698 -0.006335397215569172 7.561754163013533E-5 0.006335397215569172 7.561754163013533E-5 0.006335397215569172 0.9999243824583698 -0.006335397215569172
109.3681223784127 0.9999190714343626 -0.006624401691099898 8.092856563743059E-5 0.006624401691099898 8.092856563743059E-5 0.006624401691099898 0.9999190714343626 -0.006624401691099898
114.3763239890794 0.9999133338198972 -0.00692659349391374 8.666618010277113E-5 0.00692659349391374 8.666618010277113E-5 0.00692659349391374 0.9999133338198972 -0.00692659349391374
119.61386192579457 0.9999071329588707 -0.007242572115952207 9.28670411293887E-5 0.007242572115952207 9.28670411293887E-5 0.007242572115952207 0.9999071329588707 -0.007242572115952207
125.09123799230618 0.9999004292862682 -0.007572964247197193 9.957071373178695E-5 0.007572964247197193 9.957071373178695E-5 0.007572964247197193 0.9999004292862682 -0.007572964247197193
130.8194348925486 0.9998931800692388 -0.007918425065051254 1.0681993076128286E-4 0.007918425065051254 1.0681993076128286E-4 0.007918425065051254 0.9998931800692388 -0.007918425065051254
136.8099382520969 0.9998853391127895 -0.008279639586713097 1.1466088721028869E-4 0.008279639586713097 1.1466088721028869E-4 0.008279639586713097 0.9998853391127895 -0.008279639586713097
143.0747596480305 0.9998768564256472 -0.008657324085748392 1.2314357435278865E-4 0.008657324085748392 1.2314357435278865E-4 0.008657324085748392 0.9998768564256472 -0.008657324085748392
149.6264606933842 0.9998676778416619 -0.009052227573665205 1.3232215833812306E-4 0.009052227573665205 1.3232215833812306E-4 0.009052227573665205 0.9998676778416619 -0.009052227573665205
156.47817822447783 0.999857744592077 -0.009465133346892378 1.4225540792297043E-4 0.009465133346892378 1.4225540792297043E-4 0.009465133346892378 0.999857744592077 -0.009465133346892378
163.643650641628 0.999846992824008 -0.0098968605991578 1.5300717599213117E-4 0.0098968605991578 1.5300717599213117E-4 0.0098968605991578 0.999846992824008 -0.0098968605991578
171.13724545605763 0.999835353060619 -0.010348266098905852 1.6464693938115658E-4 0.010348266098905852 1.6464693938115658E-4 0.010348266098905852 0.999835353060619 -0.010348266098905852
178.97398809823787 0.9998227495987171 -0.010820245931115543 1.7725040128281207E-4 0.010820245931115543 1.7725040128281207E-4 0.010820245931115543 0.9998227495987171 -0.010820245931115543
187.1695920454257 0.9998090998397834 -0.011313737302717924 1.9090016021661263E-4 0.011313737302717924 1.9090016021661263E-4 0.011313737302717924 0.9998090998397834 -0.011313737302717924
195.74049032880657 0.9997943135508001 -0.011829720410792258 2.0568644919971026E-4 0.011829720410792258 2.0568644919971026E-4 0.011829720410792258 0.9997943135508001 -0.011829720410792258
204.70386848341695 0.9997782920515784 -0.012369220372864245 2.217079484216204E-4 0.012369220372864245 2.217079484216204E-4 0.012369220372864245 0.9997782920515784 -0.012369220372864245
214.0776990069143 0.9997609273255553 -0.01293330921894267 2.3907267444461678E-4 0.01293330921894267 2.3907267444461678E-4 0.01293330921894267 0.9997609273255553 -0.01293330921894267
223.88077739628844 0.9997421010512219 -0.013523107945404886 2.5789894877811727E-4 0.013523107945404886 2.5789894877811727E-4 0.013523107945404886 0.9997421010512219 -0.013523107945404886
234.132759834772 0.9997216835513422 -0.014139788631450613 2.7831644865786056E-4 0.014139788631450613 2.7831644865786056E-4 0.014139788631450613 0.9997216835513422 -0.014139788631450613
244.85420260451448 0.9996995326569602 -0.014784576619551201 3.0046734303971654E-4 0.014784576619551201 3.0046734303971654E-4 0.014784576619551201 0.9996995326569602 -0.014784576619551201
256.06660330404856 0.9996754924827785 -0.015458752762077782 3.2450751722139427E-4 0.015458752762077782 3.2450751722139427E-4 0.015458752762077782 0.9996754924827785 -0.015458752762077782
267.792443953192 0.9996493921098547 -0.016163655737042634 3.506078901453917E-4 0.016163655737042634 3.506078901453917E-4 0.016163655737042634 0.9996493921098547 -0.016163655737042634
280.0552360718164 0.9996210441706909 -0.016900684436580833 3.7895582930919314E-4 0.016900684436580833 3.7895582930919314E-4 0.016900684436580833 0.9996210441706909 -0.016900684436580833
292.87956782286926 0.9995902433307052 -0.017671300432384143 4.097566692946838E-4 0.017671300432384143 4.097566692946838E-4 0.017671300432384143 0.9995902433307052 -0.017671300432384143
306.2911533141767 0.9995567646588029 -0.01847703052274112 4.432353411971102E-4 0.01847703052274112 4.432353411971102E-4 0.01847703052274112 0.9995567646588029 -0.01847703052274112
320.3168841578819 0.9995203618783532 -0.019319469366112504 4.796381216467926E-4 0.019319469366112504 4.796381216467926E-4 0.019319469366112504 0.9995203618783532 -0.019319469366112504
334.9848833909005 0.9994807654883648 -0.020200282206271798 5.192345116350783E-4 0.020200282206271798 5.192345116350783E-4 0.020200282206271798 0.9994807654883648 -0.020200282206271798
350.32456186451077 0.9994376807430548 -0.02112120769397618 5.623192569452555E-4 0.02112120769397618 5.623192569452555E-4 0.02112120769397618 0.9994376807430548 -0.02112120769397618
366.36667721614316 0.9993907854763758 -0.022084060809920064 6.092145236242229E-4 0.022084060809920064 6.092145236242229E-4 0.022084060809920064 0.9993907854763758 -0.022084060809920064
383.1433955416162 0.9993397277563999 -0.02309073589339184 6.602722436001083E-4 0.02309073589339184 6.602722436001083E-4 0.02309073589339184 0.9993397277563999 -0.02309073589339184
400.68835589147574 0.9992841233527412 -0.024143209780633234 7.158766472587625E-4 0.024143209780633234 7.158766472587625E-4 0.024143209780633234 0.9992841233527412 -0.024143209780633234
419.03673772076064 0.9992235529984417 -0.025243545056418147 7.764470015583617E-4 0.025243545056418147 7.764470015583617E-4 0.025243545056418147 0.9992235529984417 -0.025243545056418147
438.225331427439 0.9991575594258779 -0.02639389342184513 8.424405741220035E-4 0.02639389342184513 8.424405741220035E-4 0.02639389342184513 0.9991575594258779 -0.02639389342184513
458.2926121209498 0.9990856441542482 -0.027596499180781647 9.143558457518533E-4 0.027596499180781647 9.143558457518533E-4 0.027596499180781647 0.9990856441542482 -0.027596499180781647
479.2788167687661 0.999007264003986 -0.02885370284680266 9.927359960140542E-4 0.02885370284680266 9.927359960140542E-4 0.02885370284680266 0.999007264003986 -0.02885370284680266
501.22602487566456 0.9989218273109841 -0.0301679448718018 0.0010781726890158922 0.0301679448718018 0.0010781726890158922 0.0301679448718018 0.9989218273109841 -0.0301679448718018
524.1782428574726 0.998828689810698 -0.03154176949667313 0.001171310189302008 0.03154176949667313 0.001171310189302008 0.03154176949667313 0.998828689810698 -0.03154176949667313
548.1814922784702 0.9987271501590027 -0.03297782872349142 0.0012728498409971935 0.03297782872349142 0.0012728498409971935 0.03297782872349142 0.9987271501590027 -0.03297782872349142
573.2839021293739 0.9986164450530269 -0.034478886407365086 0.0013835549469731348 0.034478886407365086 0.0013835549469731348 0.034478886407365086 0.9986164450530269 -0.034478886407365086
599.5358053309263 0.9984957439110467 -0.03604782246447656 0.0015042560889532487 0.03604782246447656 0.0015042560889532487 0.03604782246447656 0.9984957439110467 -0.03604782246447656
626.9898396565933 0.9983641430658898 -0.03768763719062121 0.001635856934110185 0.03768763719062121 0.001635856934110185 0.03768763719062121 0.9983641430658898 -0.03768763719062121
655.7010532767296 0.9982206594211576 -0.03940145568164764 0.001779340578842439 0.03940145568164764 0.001779340578842439 0.03940145568164764 0.9982206594211576 -0.03940145568164764
685.7270151358366 0.9980642235140074 -0.0411925323434157 0.0019357764859927152 0.0411925323434157 0.0019357764859927152 0.0411925323434157 0.9980642235140074 -0.0411925323434157
717.1279303842347 0.9978936719222967 -0.04306425547404803 0.0021063280777033526 0.04306425547404803 0.0021063280777033526 0.04306425547404803 0.9978936719222967 -0.04306425547404803
749.9667610955984 0.99770773894774 -0.04502015189518137 0.0022922610522598643 0.04502015189518137 0.0022922610522598643 0.04502015189518137 0.99770773894774 -0.04502015189518137
784.3093525124082 0.9975050475005275 -0.047063891601468226 0.0024949524994726307 0.047063891601468226 0.0024949524994726307 0.047063891601468226 0.9975050475005275 -0.047063891601468226
820.2245650724522 0.9972840991048354 -0.049199292388613744 0.0027159008951645556 0.049199292388613744 0.0027159008951645556 0.049199292388613744 0.9972840991048354 -0.049199292388613744
857.7844124811068 0.9970432629390932 -0.05143032440967243 0.002956737060906767 0.05143032440967243 0.002956737060906767 0.05143032440967243 0.9970432629390932 -0.05143032440967243
897.0642061062428 0.9967807638200117 -0.053761114597152965 0.0032192361799882386 0.053761114597152965 0.0032192361799882386 0.053761114597152965 0.9967807638200117 -0.053761114597152965
938.1427059852851 0.9964946690355765 -0.056195950874726446 0.003505330964423536 0.056195950874726446 0.003505330964423536 0.056195950874726446 0.9964946690355765 -0.056195950874726446
981.102278747212 0.9961828739296837 -0.05873928606711612 0.0038171260703161766 0.05873928606711612 0.0038171260703161766 0.05873928606711612 0.9961828739296837 -0.05873928606711612
1026.0290627661395 0.9958430861401374 -0.061395741400238575 0.004156913859862608 0.061395741400238575 0.004156913859862608 0.061395741400238575 0.9958430861401374 -0.061395741400238575
1073.0131408776467 0.9954728083924743 -0.06417010946608784 0.004527191607525662 0.06417010946608784 0.004527191607525662 0.06417010946608784 0.9954728083924743 -0.06417010946608784
1122.1487210041523 0.9950693197546695 -0.06706735650844947 0.004930680245330422 0.06706735650844947 0.004930680245330422 0.06706735650844947 0.9950693197546695 -0.06706735650844947
1173.5343250515148 0.9946296552621665 -0.0700926238665302 0.005370344737833481 0.0700926238665302 0.005370344737833481 0.0700926238665302 0.9946296552621665 -0.0700926238665302
1227.2729864556143 0.9941505838288313 -0.07325122839416558 0.005849416171168614 0.07325122839416558 0.005849416171168614 0.07325122839416558 0.9941505838288313 -0.07325122839416558
1283.4724567750195 0.9936285843671766 -0.076548661652509 0.006371415632823361 0.076548661652509 0.006371415632823361 0.076548661652509 0.9936285843671766 -0.076548661652509
1342.245421743976 0.9930598200503762 -0.07999058765395757 0.006940179949623728 0.07999058765395757 0.006940179949623728 0.07999058765395757 0.9930598200503762 -0.07999058765395757
1403.7097272189235 0.9924401106590539 -0.0835828389143445 0.007559889340946169 0.0835828389143445 0.007559889340946169 0.0835828389143445 0.9924401106590539 -0.0835828389143445
1467.9886154715937 0.9917649029675043 -0.08733141054876961 0.008235097032495598 0.08733141054876961 0.008235097032495598 0.08733141054876961 0.9917649029675043 -0.08733141054876961
1535.2109723024755 0.9910292391370094 -0.09124245212336826 0.008970760862990592 0.09124245212336826 0.008970760862990592 0.09124245212336826 0.9910292391370094 -0.09124245212336826
1605.5115854701387 0.9902277230985272 -0.09532225695026404 0.009772276901472856 0.09532225695026404 0.009772276901472856 0.09532225695026404 0.9902277230985272 -0.09532225695026404
1679.0314149545911 0.9893544849238637 -0.09957724848531223 0.01064551507613643 0.09957724848531223 0.01064551507613643 0.09957724848531223 0.9893544849238637 -0.09957724848531223
1755.9178755965756 0.988403143204306 -0.10401396345747607 0.011596856795693927 0.10401396345747607 0.011596856795693927 0.10401396345747607 0.988403143204306 -0.10401396345747607
1836.3251326795319 0.9873667654797895 -0.108639031324375 0.012633234520210387 0.108639031324375 0.012633234520210387 0.108639031324375 0.9873667654797895 -0.108639031324375
1920.4144110468878 0.986237826791381 -0.11345914961052782 0.013762173208619095 0.11345914961052782 0.013762173208619095 0.11345914961052782 0.986237826791381 -0.11345914961052782
2008.3543183745 0.9850081664668676 -0.11848105464318888 0.014991833533132402 0.11848105464318888 0.014991833533132402 0.11848105464318888 0.9850081664668676 -0.11848105464318888
2100.321183246434 0.9836689432953515 -0.12371148715593194 0.01633105670464861 0.12371148715593194 0.01633105670464861 0.12371148715593194 0.9836689432953515 -0.12371148715593194
2196.4994087119585 0.9822105893039069 -0.12915715218315565 0.0177894106960929 0.12915715218315565 0.0177894106960929 0.12915715218315565 0.9822105893039069 -0.12915715218315565
2297.0818420326846 0.9806227624195625 -0.134824672620813 0.019377237580437558 0.134824672620813 0.019377237580437558 0.134824672620813 0.9806227624195625 -0.134824672620813
2402.270161361206 0.9788942983850368 -0.14072053578171123 0.02110570161496326 0.14072053578171123 0.02110570161496326 0.14072053578171123 0.9788942983850368 -0.14072053578171123
2512.2752801266033 0.9770131623987185 -0.14685103223001186 0.02298683760128155 0.14685103223001186 0.02298683760128155 0.14685103223001186 0.9770131623987185 -0.14685103223001186
2627.3177699376165 0.9749664010699852 -0.15322218614190822 0.02503359893001479 0.15322218614190822 0.02503359893001479 0.15322218614190822 0.9749664010699852 -0.15322218614190822
2747.6283028514745 0.9727400954216737 -0.15983967641128236 0.027259904578326343 0.15983967641128236 0.027259904578326343 0.15983967641128236 0.9727400954216737 -0.15983967641128236
2873.4481138951564 0.9703193158334898 -0.16670874770442717 0.029680684166510176 0.16670874770442717 0.029680684166510176 0.16670874770442717 0.9703193158334898 -0.16670874770442717
3005.0294847665045 0.967688080004208 -0.1738341106713143 0.03231191999579192 0.1738341106713143 0.03231191999579192 0.1738341106713143 0.967688080004208 -0.1738341106713143
3142.6362496850466 0.9648293152168957 -0.1812198305477197 0.03517068478310428 0.1812198305477197 0.03517068478310428 0.1812198305477197 0.9648293152168957 -0.1812198305477197
3286.544324406816 0.9617248264196744 -0.1888692034388584 0.03827517358032561 0.1888692034388584 0.03827517358032561 0.1888692034388584 0.9617248264196744 -0.1888692034388584
3437.0422594639017 0.9583552718833159 -0.19678461966785543 0.041644728116684064 0.19678461966785543 0.041644728116684064 0.19678461966785543 0.9583552718833159 -0.19678461966785543
3594.431818738024 0.9547001484637265 -0.20496741370895408 0.04529985153627337 0.20496741370895408 0.04529985153627337 0.20496741370895408 0.9547001484637265 -0.20496741370895408
3759.0285845282415 0.9507377887780503 -0.21341770041410746 0.04926221122194982 0.21341770041410746 0.04926221122194982 0.21341770041410746 0.9507377887780503 -0.21341770041410746
3931.162590326006 0.9464453728918336 -0.22213419749132077 0.053554627108166365 0.22213419749132077 0.053554627108166365 0.22213419749132077 0.9464453728918336 -0.22213419749132077
4111.17898256636 0.9417989574033031 -0.23111403451298546 0.05820104259669684 0.23111403451298546 0.05820104259669684 0.23111403451298546 0.9417989574033031 -0.23111403451298546
4299.438712682125 0.9367735250884791 -0.240352549131618 0.06322647491152086 0.240352549131618 0.06322647491152086 0.240352549131618 0.9367735250884791 -0.240352549131618
4496.31926084876 0.9313430585236764 -0.2498430716676022 0.06865694147632365 0.2498430716676022 0.06865694147632365 0.2498430716676022 0.9313430585236764 -0.2498430716676022
4702.215392871039 0.9254806413124194 -0.25957669981626436 0.07451935868758071 0.25957669981626436 0.07451935868758071 0.25957669981626436 0.9254806413124194 -0.25957669981626436
4917.539951729213 0.9191585906905488 -0.2695420659055011 0.08084140930945106 0.2695420659055011 0.08084140930945106 0.2695420659055011 0.9191585906905488 -0.2695420659055011
5142.724685371758 0.9123486253407583 -0.27972509992269723 0.08765137465924161 0.27972509992269723 0.08765137465924161 0.27972509992269723 0.9123486253407583 -0.27972509992269723
5378.221112414543 0.9050220721861576 -0.2901087924189176 0.09497792781384236 0.2901087924189176 0.09497792781384236 0.2901087924189176 0.9050220721861576 -0.2901087924189176
5624.501427482224 0.8971501157178956 -0.30067296238136115 0.10284988428210441 0.30067296238136115 0.10284988428210441 0.30067296238136115 0.8971501157178956 -0.30067296238136115
5882.059448007167 0.8887040930071463 -0.31139403622593453 0.11129590699285366 0.31139403622593453 0.11129590699285366 0.31139403622593453 0.8887040930071463 -0.31139403622593453
6151.41160438433 0.8796558369174204 -0.32224484517472063 0.1203441630825797 0.32224484517472063 0.1203441630825797 0.32224484517472063 0.8796558369174204 -0.32224484517472063
6433.097975467465 0.869978069129521 -0.3331944494100349 0.13002193087047892 0.3331944494100349 0.13002193087047892 0.3331944494100349 0.869978069129521 -0.3331944494100349
6727.683371482931 0.8596448433813705 -0.3442079984855556 0.14035515661862946 0.3442079984855556 0.14035515661862946 0.3442079984855556 0.8596448433813705 -0.3442079984855556
7035.758466532445 0.8486320377778015 -0.35524663845761084 0.15136796222219848 0.35524663845761084 0.15136796222219848 0.35524663845761084 0.8486320377778015 -0.35524663845761084
7357.940982955574 0.836917893122241 -0.36626747699148077 0.16308210687775898 0.36626747699148077 0.16308210687775898 0.36626747699148077 0.836917893122241 -0.36626747699148077
7694.876929926739 0.8244835919618316 -0.37722361819766576 0.17551640803816831 0.37722361819766576 0.17551640803816831 0.37722361819766576 0.8244835919618316 -0.37722361819766576
8047.241898770236 0.8113138704436716 -0.3880642790470264 0.18868612955632832 0.3880642790470264 0.18868612955632832 0.3880642790470264 0.8113138704436716 -0.3880642790470264
8415.742417590522 0.7973976522085418 -0.3987349987784322 0.20260234779145822 0.3987349987784322 0.20260234779145822 0.3987349987784322 0.7973976522085418 -0.3987349987784322
8801.117367933934 0.782728690495022 -0.40917795162462534 0.21727130950497797 0.40917795162462534 0.21727130950497797 0.40917795162462534 0.782728690495022 -0.40917795162462534
9204.139466322391 0.767306201530977 -0.41933237132922685 0.23269379846902294 0.41933237132922685 0.23269379846902294 0.41933237132922685 0.767306201530977 -0.41933237132922685
9625.61681362972 0.7511354693371587 -0.429135093224206 0.24886453066284145 0.429135093224206 0.24886453066284145 0.429135093224206 0.7511354693371587 -0.429135093224206
10066.394515407255 0.7342283994888092 -0.43852121604032335 0.26577160051119075 0.43852121604032335 0.26577160051119075 0.43852121604032335 0.7342283994888092 -0.43852121604032335
10527.356376407623 0.7166039974395934 -0.44742488115276025 0.28339600256040665 0.44742488115276025 0.28339600256040665 0.44742488115276025 0.7166039974395934 -0.44742488115276025
11009.426672704432 0.6982887459894851 -0.45578016171908203 0.3017112540105149 0.45578016171908203 0.3017112540105149 0.45578016171908203 0.6982887459894851 -0.45578016171908203
11513.572004961125 0.6793168566490668 -0.46352204833739535 0.3206831433509333 0.46352204833739535 0.3206831433509333 0.46352204833739535 0.6793168566490668 -0.46352204833739535
12040.803236564994 0.6597303712540161 -0.47058751172605023 0.3402696287459837 0.47058751172605023 0.3402696287459837 0.47058751172605023 0.6597303712540161 -0.47058751172605023
12592.177520512549 0.6395790933795882 -0.4769166168801229 0.3604209066204118 0.4769166168801229 0.3604209066204118 0.4769166168801229 0.6395790933795882 -0.4769166168801229
13168.800419110281 0.6189203339523321 -0.48245365764281856 0.38107966604766796 0.48245365764281856 0.38107966604766796 0.48245365764281856 0.6189203339523321 -0.48245365764281856
13771.82812074114 0.5978184618747598 -0.48714827612853034 0.40218153812524027 0.48714827612853034 0.40218153812524027 0.48714827612853034 0.5978184618747598 -0.48714827612853034
14402.469758141458 0.5763442582326912 -0.4909565284275202 0.4236557417673088 0.4909565284275202 0.4236557417673088 0.4909565284275202 0.5763442582326912 -0.4909565284275202
15061.989832836824 0.5545740813519585 -0.49384185692786386 0.4454259186480415 0.49384185692786386 0.4454259186480415 0.49384185692786386 0.5545740813519585 -0.49384185692786386
15751.710750598017 0.5325888590798592 -0.4957759307096276 0.4674111409201408 0.4957759307096276 0.4674111409201408 0.4957759307096276 0.5325888590798592 -0.4957759307096276
16473.01547300104 0.5104729335563472 -0.4967393189351388 0.4895270664436526 0.4967393189351388 0.4895270664436526 0.4967393189351388 0.5104729335563472 -0.4967393189351388
17227.35029040763 0.48831279173741543 -0.4967219679141423 0.5116872082625845 0.4967219679141423 0.5116872082625845 0.4967219679141423 0.48831279173741543 -0.4967219679141423
18016.227721926643 0.46619572139207405 -0.49572346028856945 0.5338042786079261 0.49572346028856945 0.5338042786079261 0.49572346028856945 0.46619572139207405 -0.49572346028856945
18841.229548170857 0.4442084366675271 -0.49375304408572607 0.5557915633324729 0.49375304408572607 0.5557915633324729 0.49375304408572607 0.4442084366675271 -0.49375304408572607
19704.009982890246 0.4224357192202973 -0.4908294296003345 0.5775642807797025 0.4908294296003345 0.5775642807797025 0.4908294296003345 0.4224357192202973 -0.4908294296003345
20606.298989841158 0.4009591201701228 -0.48698036245840226 0.5990408798298773 0.48698036245840226 0.5990408798298773 0.48698036245840226 0.4009591201701228 -0.48698036245840226
21549.90575154206 0.37985576480604133 -0.4822419910421343 0.6201442351939586 0.4822419910421343 0.6201442351939586 0.4822419910421343 0.37985576480604133 -0.4822419910421343
22536.722296871103 0.35919729634279074 -0.4766580550256841 0.6408027036572093 0.4766580550256841 0.6408027036572093 0.4766580550256841 0.35919729634279074 -0.4766580550256841
23568.727294779124 0.33904898756351914 -0.4702789285249729 0.6609510124364808 0.4702789285249729 0.6609510124364808 0.4702789285249729 0.33904898756351914 -0.4702789285249729
24647.99002172501 0.3194690404994088 -0.46316055591982885 0.6805309595005911 0.46316055591982885 0.6805309595005911 0.46316055591982885 0.3194690404994088 -0.46316055591982885
25776.674510788394 0.3005080850608847 -0.45536332058999196 0.6994919149391152 0.45536332058999196 0.6994919149391152 0.45536332058999196 0.3005080850608847 -0.45536332058999196
26957.043890779165 0.2822088784148833 -0.44695088665430316 0.7177911215851166 0.44695088665430316 0.7177911215851166 0.44695088665430316 0.2822088784148833 -0.44695088665430316
28191.464924044165 0.26460619849352657 -0.4379890515374129 0.7353938015064734 0.4379890515374129 0.7353938015064734 0.4379890515374129 0.26460619849352657 -0.4379890515374129
29482.412752069788 0.24772691779633055 -0.4285446431783604 0.7522730822036695 0.4285446431783604 0.7522730822036695 0.4285446431783604 0.24772691779633055 -0.4285446431783604
30832.47585839592 0.23159023793542985 -0.41868449040069927 0.7684097620645701 0.41868449040069927 0.7684097620645701 0.41868449040069927 0.23159023793542985 -0.41868449040069927
32244.361258792436 0.21620806133623688 -0.4084744888819483 0.7837919386637632 0.4084744888819483 0.7837919386637632 0.4084744888819483 0.21620806133623688 -0.4084744888819483
33720.899929105 0.20158547415925795 -0.3979787787752119 0.798414525840742 0.3979787787752119 0.798414525840742 0.3979787787752119 0.20158547415925795 -0.3979787787752119
35265.052481653605 0.18772131374022297 -0.3872590437779199 0.8122786862597771 0.3872590437779199 0.8122786862597771 0.3872590437779199 0.18772131374022297 -0.3872590437779199
36879.915101565646 0.17460879444823377 -0.37637393566018884 0.8253912055517661 0.37637393566018884 0.8253912055517661 0.37637393566018884 0.17460879444823377 -0.37637393566018884
38568.72575494639 0.1622361675686961 -0.3653786232108169 0.8377638324313039 0.3653786232108169 0.8377638324313039 0.3653786232108169 0.1622361675686961 -0.3653786232108169
40334.87068133502 0.1505873933370814 -0.35432446038726 0.8494126066629186 0.35432446038726 0.8494126066629186 0.35432446038726 0.1505873933370814 -0.35432446038726
42181.89118346415 0.13964280629191264 -0.34325876523204724 0.8603571937080873 0.34325876523204724 0.8603571937080873 0.34325876523204724 0.13964280629191264 -0.34325876523204724
44113.490727937 0.12937975841686444 -0.3322246988315397 0.8706202415831354 0.3322246988315397 0.8706202415831354 0.3322246988315397 0.12937975841686444 -0.3322246988315397
46133.54237105995 0.11977322787830989 -0.3212612321755822 0.88022677212169 0.3212612321755822 0.88022677212169 0.3212612321755822 0.11977322787830989 -0.3212612321755822
48246.09652471983 0.11079638435905464 -0.3104031881212274 0.8892036156409455 0.3104031881212274 0.8892036156409455 0.3104031881212274 0.11079638435905464 -0.3104031881212274
50455.389077877684 0.10242110491311378 -0.299681345641122 0.8975788950868863 0.299681345641122 0.8975788950868863 0.299681345641122 0.10242110491311378 -0.299681345641122
52765.849889962716 0.0946184368378083 -0.289122594010804 0.9053815631621919 0.289122594010804 0.9053815631621919 0.289122594010804 0.0946184368378083 -0.289122594010804
55182.11167319754 0.08735900623567347 -0.27875012542634936 0.9126409937643265 0.27875012542634936 0.9126409937643265 0.27875012542634936 0.08735900623567347 -0.27875012542634936
57709.019281663976 0.08061337270978103 -0.26858365562369 0.9193866272902191 0.26858365562369 0.9193866272902191 0.26858365562369 0.08061337270978103 -0.26858365562369
60351.63942573506 0.07435233201677847 -0.25863966328921056 0.9256476679832214 0.25863966328921056 0.9256476679832214 0.25863966328921056 0.07435233201677847 -0.25863966328921056
63115.27083135204 0.06854716952416572 -0.24893164032252754 0.9314528304758344 0.24893164032252754 0.9314528304758344 0.24893164032252754 0.06854716952416572 -0.24893164032252754
66005.4548645163 0.06316986802453352 -0.23947034627034927 0.9368301319754665 0.23947034627034927 0.9368301319754665 0.23947034627034927 0.06316986802453352 -0.23947034627034927
69027.98664229971 0.058193273897242506 -0.23026406144661332 0.9418067261027577 0.23026406144661332 0.9418067261027577 0.23026406144661332 0.058193273897242506 -0.23026406144661332
72188.92665265215 0.05359122582575966 -0.22131883435617158 0.9464087741742405 0.22131883435617158 0.9464087741742405 0.22131883435617158 0.05359122582575966 -0.22131883435617158
75494.61290630474 0.04933865032279537 -0.21263872002796386 0.9506613496772045 0.21263872002796386 0.9506613496772045 0.21263872002796386 0.04933865032279537 -0.21263872002796386
78951.67364513519 0.045411628227435025 -0.20422600673035826 0.9545883717725651 0.20422600673035826 0.9545883717725651 0.20422600673035826 0.045411628227435025 -0.20422600673035826
82567.04063247632 0.041787436155149814 -0.19608142928575525 0.9582125638448502 0.19608142928575525 0.9582125638448502 0.19608142928575525 0.041787436155149814 -0.19608142928575525
86347.96305201648 0.03844456663345893 -0.18820436782897176 0.9615554333665413 0.18820436782897176 0.9615554333665413 0.18820436782897176 0.03844456663345893 -0.18820436782897176
90302.02204316045 0.03536273036778034 -0.180593031373429 0.9646372696322195 0.180593031373429 0.9646372696322195 0.180593031373429 0.03536273036778034 -0.180593031373429
94437.14590199597 0.03252284377281342 -0.17324462597189302 0.9674771562271869 0.17324462597189302 0.9674771562271869 0.17324462597189302 0.03252284377281342 -0.17324462597189302
98761.62597834495 0.029907004588951007 -0.16615550759633765 0.9700929954110491 0.16615550759633765 0.9700929954110491 0.16615550759633765 0.029907004588951007 -0.16615550759633765
103284.13330077512 0.027498458090950705 -0.15932132012612193 0.9725015419090491 0.15932132012612193 0.9725015419090491 0.15932132012612193 0.027498458090950705 -0.15932132012612193
108013.73596290655 0.025281556094362632 -0.1527371190359388 0.9747184439056376 0.1527371190359388 0.9747184439056376 0.1527371190359388 0.025281556094362632 -0.1527371190359388
112959.91730587467 0.02324171067850533 -0.1463974815245908 0.9767582893214947 0.1463974815245908 0.9767582893214947 0.1463974815245908 0.02324171067850533 -0.1463974815245908
118132.59493340722 0.021365344275832327 -0.14029660393094873 0.9786346557241676 0.14029660393094873 0.9786346557241676 0.14029660393094873 0.021365344275832327 -0.14029660393094873
123542.14059764279 0.019639837527881482 -0.13442838735154847 0.9803601624721187 0.13442838735154847 0.9803601624721187 0.13442838735154847 0.019639837527881482 -0.13442838735154847
129199.40099556338 0.018053476078472692 -0.12878651241120426 0.9819465239215275 0.12878651241120426 0.9819465239215275 0.12878651241120426 0.018053476078472692 -0.12878651241120426
135115.71951774065 0.01659539726579869 -0.12336450414886418 0.9834046027342013 0.12336450414886418 0.9834046027342013 0.12336450414886418 0.01659539726579869 -0.12336450414886418
141302.95899300394 0.015255537486675803 -0.11815578797016818 0.984744462513324 0.11815578797016818 0.984744462513324 0.11815578797016818 0.015255537486675803 -0.11815578797016818
147773.52547463533 0.014024580838432329 -0.113153737589756 0.9859754191615678 0.113153737589756 0.9859754191615678 0.113153737589756 0.014024580838432329 -0.113153737589756
154540.39311578672 0.01289390949648268 -0.1083517158439669 0.9871060905035175 0.1083517158439669 0.9871060905035175 0.1083517158439669 0.01289390949648268 -0.1083517158439669
161617.13018399404 0.011855556158110708 -0.10374310920154411 0.9881444438418894 0.10374310920154411 0.9881444438418894 0.10374310920154411 0.011855556158110708 -0.10374310920154411
169017.92626695373 0.010902158774658145 -0.0993213567394632 0.9890978412253417 0.0993213567394632 0.9890978412253417 0.0993213567394632 0.010902158774658145 -0.0993213567394632
176757.6207241092 0.010026917704187989 -0.09507997428594492 0.9899730822958122 0.09507997428594492 0.9899730822958122 0.09507997428594492 0.010026917704187989 -0.09507997428594492
184851.7324410973 0.00922355534348662 -0.09101257436567631 0.9907764446565133 0.09101257436567631 0.9907764446565133 0.09101257436567631 0.00922355534348662 -0.09101257436567631
193316.49094671433 0.008486278240451754 -0.08711288251550618 0.9915137217595481 0.08711288251550618 0.9915137217595481 0.08711288251550618 0.008486278240451754 -0.08711288251550618
202168.86895479533 0.007809741643760767 -0.08337475047424624 0.9921902583562394 0.08337475047424624 0.9921902583562394 0.08337475047424624 0.007809741643760767 -0.08337475047424624
211426.61639625567 0.007189016414386552 -0.07979216668914027 0.9928109835856135 0.07979216668914027 0.9928109835856135 0.07979216668914027 0.007189016414386552 -0.07979216668914027
221108.2960095334 0.006619558201154679 -0.07635926452507866 0.9933804417988454 0.07635926452507866 0.9933804417988454 0.07635926452507866 0.006619558201154679 -0.07635926452507866
231233.32056079412 0.0060971787682949545 -0.07307032851136046 0.9939028212317053 0.07307032851136046 0.9939028212317053 0.07307032851136046 0.0060971787682949545 -0.07307032851136046
241821.9917685295 0.005618019355130013 -0.06991979891502831 0.9943819806448699 0.06991979891502831 0.9943819806448699 0.06991979891502831 0.005618019355130013 -0.06991979891502831
252895.54101059667 0.005178525945130798 -0.06690227488951107 0.9948214740548694 0.06690227488951107 0.9948214740548694 0.06690227488951107 0.005178525945130798 -0.06690227488951107
264476.17189532047 0.0047754263222254114 -0.06401251641227473 0.9952245736777746 0.06401251641227473 0.9952245736777746 0.06401251641227473 0.0047754263222254114 -0.06401251641227473
276587.1047820183 0.004405708795364491 -0.061245445195010746 0.9955942912046354 0.061245445195010746 0.9955942912046354 0.061245445195010746 0.004405708795364491 -0.061245445195010746
289252.62334021524 0.004066602477032252 -0.05859614472408373 0.995933397522968 0.05859614472408373 0.995933397522968 0.05859614472408373 0.004066602477032252 -0.05859614472408373
302498.12324090634 0.003755559006963649 -0.05605985956697583 0.9962444409930364 0.05605985956697583 0.9962444409930364 0.05605985956697583 0.003755559006963649 -0.05605985956697583
316350.1630774958 0.003470235618285739 -0.0536319940617459 0.996529764381714 0.0536319940617459 0.996529764381714 0.0536319940617459 0.003470235618285739 -0.0536319940617459
330836.51761851617 0.0032084794493067964 -0.05130811049053376 0.9967915205506931 0.05130811049053376 0.9967915205506931 0.05130811049053376 0.0032084794493067964 -0.05130811049053376
345986.2334989038 0.0029683130100245166 -0.04908392682440548 0.9970316869899754 0.04908392682440548 0.9970316869899754 0.04908392682440548 0.0029683130100245166 -0.04908392682440548
361829.68746149767 0.0027479207180137943 -0.04695531411492475 0.9972520792819863 0.04695531411492475 0.9972520792819863 0.04695531411492475 0.0027479207180137943 -0.04695531411492475
378398.6472655419 0.0025456364236636415 -0.04491829359739874 0.9974543635763363 0.04491829359739874 0.9974543635763363 0.04491829359739874 0.0025456364236636415 -0.04491829359739874
395726.33538431907 0.0023599318497947467 -0.042969033561504735 0.9976400681502052 0.042969033561504735 0.9976400681502052 0.042969033561504735 0.0023599318497947467 -0.042969033561504735
413847.4956196361 0.002189405875569502 -0.04110384603674976 0.9978105941244303 0.04110384603674976 0.9978105941244303 0.04110384603674976 0.002189405875569502 -0.04110384603674976
432798.46276673 0.0020327745993829033 -0.03931918333281165 0.9979672254006171 0.03931918333281165 0.9979672254006171 0.03931918333281165 0.0020327745993829033 -0.03931918333281165
452617.23546927935 0.001888862120168899 -0.03761163446817923 0.9981111378798312 0.03761163446817923 0.9981111378798312 0.03761163446817923 0.001888862120168899 -0.03761163446817923
473343.5524106058 0.0017565919813262198 -0.035977921514623215 0.9982434080186736 0.035977921514623215 0.9982434080186736 0.035977921514623215 0.0017565919813262198 -0.035977921514623215
495018.9719938298 0.0016349792262840912 -0.03441489587989751 0.9983650207737157 0.03441489587989751 0.9983650207737157 0.03441489587989751 0.0016349792262840912 -0.03441489587989751
517686.9556707574 0.0015231230195771708 -0.032919534546719476 0.9984768769804228 0.032919534546719476 0.9984768769804228 0.032919534546719476 0.0015231230195771708 -0.032919534546719476
541392.9550865724 0.001420199792127402 -0.031488936282543734 0.9985798002078726 0.031488936282543734 0.9985798002078726 0.031488936282543734 0.001420199792127402 -0.031488936282543734
566184.5032150731 0.00132545687414771 -0.03012031783194283 0.9986745431258522 0.03012031783194283 0.9986745431258522 0.03012031783194283 0.00132545687414771 -0.03012031783194283
592111.3096671875 0.001238206583570648 -0.02881101010153752 0.9987617934164293 0.02881101010153752 0.9987617934164293 0.02881101010153752 0.001238206583570648 -0.02881101010153752
619225.3603638692 0.0011578207420302126 -0.027558454346332795 0.9988421792579697 0.027558454346332795 0.9988421792579697 0.027558454346332795 0.0011578207420302126 -0.027558454346332795
647581.0217732318 0.0010837255940536782 -0.026360198365927408 0.9989162744059463 0.026360198365927408 0.9989162744059463 0.026360198365927408 0.0010837255940536782 -0.026360198365927408
677235.1499209236 0.0010153971081362865 -0.025213892719245547 0.9989846028918635 0.025213892719245547 0.9989846028918635 0.025213892719245547 0.0010153971081362865 -0.025213892719245547
708247.2043923237 9.523566406914823E-4 -0.024117286967024285 0.9990476433593085 0.024117286967024285 0.9990476433593085 0.024117286967024285 9.523566406914823E-4 -0.024117286967024285
740679.3675551426 8.941669454552251E-4 -0.02306822595209341 0.9991058330545447 0.02306822595209341 0.9991058330545447 0.02306822595209341 8.941669454552251E-4 -0.02306822595209341
774596.6692414834 8.404285117884988E-4 -0.022064646128308402 0.9991595714882116 0.022064646128308402 0.9991595714882116 0.022064646128308402 8.404285117884988E-4 -0.022064646128308402
810067.1171393609 7.907762155346587E-4 -0.02110457194966164 0.9992092237844652 0.02110457194966164 0.9992092237844652 0.02110457194966164 7.907762155346587E-4 -0.02110457194966164
847161.8331551342 7.448762657618286E-4 -0.02018611233144061 0.9992551237342383 0.02018611233144061 0.9992551237342383 0.02018611233144061 7.448762657618286E-4 -0.02018611233144061
885955.196020256 7.02423430006303E-4 -0.0193074571952133 0.9992975765699936 0.0193074571952133 0.9992975765699936 0.0193074571952133 7.02423430006303E-4 -0.0193074571952133
926524.9904283119 6.631385197033987E-4 -0.018466874108826876 0.9993368614802965 0.018466874108826876 0.9993368614802965 0.018466874108826876 6.631385197033987E-4 -0.018466874108826876
968952.5630013399 6.267661165266661E-4 -0.01766270503149952 0.9993732338834734 0.01766270503149952 0.9993732338834734 0.01766270503149952 6.267661165266661E-4 -0.01766270503149952
1013322.9853982128 5.930725195232905E-4 -0.016893363172493507 0.9994069274804768 0.016893363172493507 0.9994069274804768 0.016893363172493507 5.930725195232905E-4 -0.016893363172493507
1059725.224892072 5.618438923790979E-4 -0.01615732996987113 0.9994381561076207 0.01615732996987113 0.9994381561076207 0.01615732996987113 5.618438923790979E-4 -0.01615732996987113
1108252.3227589026 5.328845899822645E-4 -0.015453152193555333 0.9994671154100179 0.015453152193555333 0.9994671154100179 0.015453152193555333 5.328845899822645E-4 -0.015453152193555333
1159001.5808348707 5.060156437531601E-4 -0.014779439174492742 0.9994939843562467 0.014779439174492742 0.9994939843562467 0.014779439174492742 5.060156437531601E-4 -0.014779439174492742
1212074.756616558 4.8107338599734584E-4 -0.014134860159280725 0.9995189266140027 0.014134860159280725 0.9995189266140027 0.014134860159280725 4.8107338599734584E-4 -0.014134860159280725
1267578.267295219 4.579081948073414E-4 -0.013518141787327374 0.9995420918051928 0.013518141787327374 0.9995420918051928 0.013518141787327374 4.579081948073414E-4 -0.013518141787327374
1325623.403134245 4.363833427346971E-4 -0.012928065685583112 0.9995636166572652 0.012928065685583112 0.9995636166572652 0.012928065685583112 4.363833427346971E-4 -0.012928065685583112
1386326.5506175987 4.163739344938876E-4 -0.012363466174233223 0.9995836260655062 0.012363466174233223 0.9995836260655062 0.012363466174233223 4.163739344938876E-4 -0.012363466174233223
1449809.4258167404 3.977659212347416E-4 -0.011823228075541498 0.9996022340787651 0.011823228075541498 0.9996022340787651 0.011823228075541498 3.977659212347416E-4 -0.011823228075541498
1516199.318443883 3.8045518130669164E-4 -0.0113062846173408 0.9996195448186934 0.0113062846173408 0.9996195448186934 0.0113062846173408 3.8045518130669164E-4 -0.0113062846173408
1585629.3470810156 3.6434665980570474E-4 -0.010811615422475716 0.9996356533401942 0.010811615422475716 0.9996356533401942 0.010811615422475716 3.6434665980570474E-4 -0.010811615422475716
1658238.7260963656 3.493535614181809E-4 -0.010338244575797514 0.9996506464385817 0.010338244575797514 0.9996506464385817 0.010338244575797514 3.493535614181809E-4 -0.010338244575797514
1734173.0447835915 3.3539659304390105E-4 -0.009885238761022251 0.9996646034069562 0.009885238761022251 0.9996646034069562 0.009885238761022251 3.3539659304390105E-4 -0.009885238761022251
1813584.5592833052 3.224032543045478E-4 -0.009451705460809805 0.9996775967456955 0.009451705460809805 0.9996775967456955 0.009451705460809805 3.224032543045478E-4 -0.009451705460809805
1896632.4978723642 3.1030717526682293E-4 -0.009036791214689673 0.999689692824733 0.009036791214689673 0.999689692824733 0.009036791214689673 3.1030717526682293E-4 -0.009036791214689673
1983483.380232962 2.990475015051884E-4 -0.00863967993083964 0.9997009524984949 0.00863967993083964 0.9997009524984949 0.00863967993083964 2.990475015051884E-4 -0.00863967993083964
2074311.351341793 2.885683270077335E-4 -0.008259591249094544 0.9997114316729923 0.008259591249094544 0.9997114316729923 0.008259591249094544 2.885683270077335E-4 -0.008259591249094544
2169298.5306486627 2.788181754299953E-4 -0.007895778953827159 0.9997211818245699 0.007895778953827159 0.9997211818245699 0.007895778953827159 2.788181754299953E-4 -0.007895778953827159
2268635.3772447985 2.697495298908402E-4 -0.007547529436412595 0.9997302504701092 0.007547529436412595 0.9997302504701092 0.007547529436412595 2.697495298908402E-4 -0.007547529436412595
2372521.0717529384 2.6131841096403534E-4 -0.007214160207809111 0.9997386815890362 0.007214160207809111 0.9997386815890362 0.007214160207809111 2.6131841096403534E-4 -0.007214160207809111
2481163.9157050513 2.534840018385809E-4 -0.006895018462327476 0.9997465159981613 0.006895018462327476 0.9997465159981613 0.006895018462327476 2.534840018385809E-4 -0.006895018462327476
2594781.7492083823 2.462083188886498E-4 -0.006589479693919931 0.9997537916811114 0.006589479693919931 0.9997537916811114 0.006589479693919931 2.462083188886498E-4 -0.006589479693919931
2713602.3877373175 2.394559251889505E-4 -0.006296946366317293 0.9997605440748112 0.006296946366317293 0.9997605440748112 0.006296946366317293 2.394559251889505E-4 -0.006296946366317293
2837864.078926942 2.331936838971967E-4 -0.006016846638121184 0.9997668063161027 0.006016846638121184 0.9997668063161027 0.006016846638121184 2.331936838971967E-4 -0.006016846638121184
2967815.980284079 2.2739054794712553E-4 -0.005748633143569537 0.999772609452053 0.005748633143569537 0.999772609452053 0.005748633143569537 2.2739054794712553E-4 -0.005748633143569537
3103718.6587738325 2.220173821785572E-4 -0.005491781829193817 0.9997779826178214 0.005491781829193817 0.9997779826178214 0.005491781829193817 2.220173821785572E-4 -0.005491781829193817
3245844.61328318 2.1704681388249187E-4 -0.005245790846034078 0.9997829531861175 0.005245790846034078 0.9997829531861175 0.005245790846034078 2.1704681388249187E-4 -0.005245790846034078
3394478.8210093947 2.1245310775083102E-4 -0.005010179496520545 0.9997875468922492 0.005010179496520545 0.9997875468922492 0.005010179496520545 2.1245310775083102E-4 -0.005010179496520545
3549919.3088686652 2.0821206137219887E-4 -0.00478448723461189 0.9997917879386278 0.00478448723461189 0.9997917879386278 0.00478448723461189 2.0821206137219887E-4 -0.00478448723461189
3712477.751070856 2.0430091768023658E-4 -0.0045682727173276235 0.9997956990823197 0.0045682727173276235 0.9997956990823197 0.0045682727173276235 2.0430091768023658E-4 -0.0045682727173276235
3882480.094058385 2.0069829110808018E-4 -0.004361112905447322 0.999799301708892 0.004361112905447322 0.999799301708892 0.004361112905447322 2.0069829110808018E-4 -0.004361112905447322
4060267.2100625183 1.9738410460180887E-4 -0.004162602210878139 0.9998026158953981 0.004162602210878139 0.9998026158953981 0.004162602210878139 1.9738410460180887E-4 -0.004162602210878139
4246195.580587287 1.9433953506838893E-4 -0.00397235168801747 0.9998056604649315 0.00397235168801747 0.9998056604649315 0.00397235168801747 1.9433953506838893E-4 -0.00397235168801747
4440638.011191738 1.9154696525608544E-4 -0.0037899882663502355 0.9998084530347441 0.0037899882663502355 0.9998084530347441 0.0037899882663502355 1.9154696525608544E-4 -0.0037899882663502355
4643984.379003457 1.889899404687092E-4 -0.003615154021512044 0.9998110100595313 0.003615154021512044 0.9998110100595313 0.003615154021512044 1.889899404687092E-4 -0.003615154021512044
4856642.414462493 1.8665312888584452E-4 -0.003447505482104054 0.9998133468711142 0.003447505482104054 0.9998133468711142 0.003447505482104054 1.8665312888584452E-4 -0.003447505482104054
5079038.5188628705 1.8452228459085295E-4 -0.003286712969650867 0.9998154777154091 0.003286712969650867 0.9998154777154091 0.003286712969650867 1.8452228459085295E-4 -0.003286712969650867
5311618.619331237 1.8258421269277551E-4 -0.0031324599692329723 0.9998174157873073 0.0031324599692329723 0.9998174157873073 0.0031324599692329723 1.8258421269277551E-4 -0.0031324599692329723
5554849.062956665 1.80826736166599E-4 -0.002984442528488986 0.9998191732638335 0.002984442528488986 0.9998191732638335 0.002984442528488986 1.80826736166599E-4 -0.002984442528488986
5809217.551864742 1.7923866423076124E-4 -0.0028423686828576273 0.9998207613357692 0.0028423686828576273 0.9998207613357692 0.0028423686828576273 1.7923866423076124E-4 -0.0028423686828576273
6075234.121110557 1.7780976223513663E-4 -0.0027059579051070958 0.999822190237765 0.0027059579051070958 0.999822190237765 0.0027059579051070958 1.7780976223513663E-4 -0.0027059579051070958
6353432.161351663 1.7653072315215954E-4 -0.0025749405773721006 0.9998234692768478 0.0025749405773721006 0.9998234692768478 0.0025749405773721006 1.7653072315215954E-4 -0.0025749405773721006
6644369.48835128 1.753931408538717E-4 -0.002449057484081949 0.999824606859146 0.002449057484081949 0.999824606859146 0.002449057484081949 1.753931408538717E-4 -0.002449057484081949
6948629.461456518 1.743894854243518E-4 -0.0023280593243121283 0.9998256105145757 0.0023280593243121283 0.9998256105145757 0.0023280593243121283 1.743894854243518E-4 -0.0023280593243121283
7266822.153293942 1.7351308080591055E-4 -0.0022117062422257368 0.9998264869191941 0.0022117062422257368 0.9998264869191941 0.0022117062422257368 1.7351308080591055E-4 -0.0022117062422257368
7599585.573028191 1.7275808511396952E-4 -0.0020997673743873182 0.9998272419148859 0.0020997673743873182 0.9998272419148859 0.0020997673743873182 1.7275808511396952E-4 -0.0020997673743873182
7947586.945636123 1.72119473984685E-4 -0.0019920204128310876 0.9998278805260151 0.0019920204128310876 0.9998278805260151 0.0019920204128310876 1.72119473984685E-4 -0.0019920204128310876
8311524.049761669 1.7159302734571052E-4 -0.0018882511828472487 0.9998284069726544 0.0018882511828472487 0.9998284069726544 0.0018882511828472487 1.7159302734571052E-4 -0.0018882511828472487
8692126.616834069 1.7117532002830084E-4 -0.0017882532345151157 0.9998288246799716 0.0017882532345151157 0.9998288246799716 0.0017882532345151157 1.7117532002830084E-4 -0.0017882532345151157
9090157.794254545 1.7086371667231068E-4 -0.001691827447060638 0.9998291362833277 0.001691827447060638 0.9998291362833277 0.001691827447060638 1.7086371667231068E-4 -0.001691827447060638
9506415.67558567 1.7065637141865396E-4 -0.0015987816451485783 0.9998293436285813 0.0015987816451485783 0.9998293436285813 0.0015987816451485783 1.7065637141865396E-4 -0.0015987816451485783
9941734.900811132 1.705522329407439E-4 -0.0015089302262374083 0.9998294477670592 0.0015089302262374083 0.9998294477670592 0.0015089302262374083 1.705522329407439E-4 -0.0015089302262374083
1.0396988329875145E7 1.705510554422021E-4 -0.0014220937981268206 0.9998294489445576 0.0014220937981268206 0.9998294489445576 0.0014220937981268206 1.705510554422021E-4 -0.0014220937981268206
1.0873088792856488E7 1.706534163484294E-4 -0.0013380988258147196 0.9998293465836517 0.0013380988258147196 0.9998293465836517 0.0013380988258147196 1.706534163484294E-4 -0.0013380988258147196
1.1370990920287136E7 1.7086074155159422E-4 -0.0012567772867506921 0.9998291392584482 0.0012567772867506921 0.9998291392584482 0.0012567772867506921 1.7086074155159422E-4 -0.0012567772867506921
1.1891693057284761E7 1.7117533924132966E-4 -0.0011779663335266593 0.9998288246607586 0.0011779663335266593 0.9998288246607586 0.0011779663335266593 1.7117533924132966E-4 -0.0011779663335266593
1.2436239265337834E7 1.7160044357886892E-4 -0.0011015079629799588 0.9998283995564212 0.0011015079629799588 0.9998283995564212 0.0011015079629799588 1.7160044357886892E-4 -0.0011015079629799588
1.3005721415756406E7 1.7214026976638362E-4 -0.0010272486905991954 0.9998278597302337 0.0010272486905991954 0.9998278597302337 0.0010272486905991954 1.7214026976638362E-4 -0.0010272486905991954
1.3601281378986895E7 1.7280008244730086E-4 -9.550392290158908E-4 0.9998271999175528 9.550392290158908E-4 0.9998271999175528 9.550392290158908E-4 1.7280008244730086E-4 -9.550392290158908E-4
1.4224113314179895E7 1.7358627987637597E-4 -8.847341692349994E-4 0.9998264137201238 8.847341692349994E-4 0.9998264137201238 8.847341692349994E-4 1.7358627987637597E-4 -8.847341692349994E-4
1.487546606360265E7 1.7450649695998767E-4 -8.161916631033559E-4 0.9998254935030398 8.161916631033559E-4 0.9998254935030398 8.161916631033559E-4 1.7450649695998767E-4 -8.161916631033559E-4
1.5556645656696366E7 1.755697311420983E-4 -7.492731053400185E-4 0.999824430268858 7.492731053400185E-4 0.999824430268858 7.492731053400185E-4 1.755697311420983E-4 -7.492731053400185E-4
1.6269017928800195E7 1.767864962752402E-4 -6.83842813261829E-4 0.9998232135037248 6.83842813261829E-4 0.9998232135037248 6.83842813261829E-4 1.767864962752402E-4 -6.83842813261829E-4
1.7014011259791706E7 1.7816901117416608E-4 -6.197677021471645E-4 0.9998218309888258 6.197677021471645E-4 0.9998218309888258 6.197677021471645E-4 1.7816901117416608E-4 -6.197677021471645E-4
1.7793119438136104E7 1.7973143165026398E-4 -5.569169540196891E-4 0.9998202685683497 5.569169540196891E-4 0.9998202685683497 5.569169540196891E-4 1.7973143165026398E-4 -5.569169540196891E-4
1.8607904656085912E7 1.8149013767600815E-4 -4.951616775589752E-4 0.9998185098623241 4.951616775589752E-4 0.9998185098623241 4.951616775589752E-4 1.8149013767600815E-4 -4.951616775589752E-4
1.946000064203784E7 1.8346409122642484E-4 -4.343745569571115E-4 0.9998165359087735 4.343745569571115E-4 0.9998165359087735 4.343745569571115E-4 1.8346409122642484E-4 -4.343745569571115E-4
2.03511159363264E7 1.8567528571059171E-4 -3.7442948802158225E-4 0.9998143247142894 3.7442948802158225E-4 0.9998143247142894 3.7442948802158225E-4 1.8567528571059171E-4 -3.7442948802158225E-4
2.128303731702384E7 1.8814931534445037E-4 -3.152012009922727E-4 0.9998118506846557 3.152012009922727E-4 0.9998118506846557 3.152012009922727E-4 1.8814931534445037E-4 -3.152012009922727E-4
2.225763338261411E7 1.9091610319332906E-4 -2.5656487195177525E-4 0.9998090838968066 2.5656487195177525E-4 0.9998090838968066 2.5656487195177525E-4 1.9091610319332906E-4 -2.5656487195177525E-4
2.3276858298725832E7 1.9401084117201726E-4 -1.9839572933601175E-4 0.9998059891588279 1.9839572933601175E-4 0.9998059891588279 1.9839572933601175E-4 1.9401084117201726E-4 -1.9839572933601175E-4
2.434275571643584E7 1.9747521580766443E-4 -1.4056867060340905E-4 0.9998025247841924 1.4056867060340905E-4 0.9998025247841924 1.4056867060340905E-4 1.9747521580766443E-4 -1.4056867060340905E-4
2.5457462870000184E7 2.0135902255121274E-4 -8.295791959968591E-5 0.9997986409774489 8.295791959968591E-5 0.9997986409774489 8.295791959968591E-5 2.0135902255121274E-4 -8.295791959968591E-5
2.6623214862229604E7 2.0572231230992703E-4 -2.5436782885287216E-5 0.99979427768769 2.5436782885287216E-5 0.99979427768769 2.5436782885287216E-5 2.0572231230992703E-4 -2.5436782885287216E-5
2.7842349146100778E7 2.1063827115359372E-4 3.212238723242355E-5 0.9997893617288466 -3.212238723242355E-5 0.9997893617288466 -3.212238723242355E-5 2.1063827115359372E-4 3.212238723242355E-5
2.911731021159103E7 2.1619711299914027E-4 8.984782696179026E-5 0.9997838028870009 -8.984782696179026E-5 0.9997838028870009 -8.984782696179026E-5 2.1619711299914027E-4 8.984782696179026E-5
3.0450654487132445E7 2.2251136960482773E-4 1.4786723882580696E-4 0.9997774886303952 -1.4786723882580696E-4 0.9997774886303952 -1.4786723882580696E-4 2.2251136960482773E-4 1.4786723882580696E-4
3.1845055465514947E7 2.2972308973595107E-4 2.063052765864115E-4 0.9997702769102639 -2.063052765864115E-4 0.9997702769102639 -2.063052765864115E-4 2.2972308973595107E-4 2.063052765864115E-4
3.3303309064514637E7 2.3801358448107172E-4 2.6527849420270386E-4 0.9997619864155189 -2.6527849420270386E-4 0.9997619864155189 -2.6527849420270386E-4 2.3801358448107172E-4 2.6527849420270386E-4
3.48283392329978E7 2.476163882615799E-4 3.2488571182029847E-4 0.9997523836117385 -3.2488571182029847E-4 0.9997523836117385 -3.2488571182029847E-4 2.476163882615799E-4 3.2488571182029847E-4
3.642320381373938E7 2.588337846464341E-4 3.8519016535317044E-4 0.9997411662153537 -3.8519016535317044E-4 0.9997411662153537 -3.8519016535317044E-4 2.588337846464341E-4 3.8519016535317044E-4
3.809110067471375E7 2.720558881619787E-4 4.4618713328667663E-4 0.9997279441118379 -4.4618713328667663E-4 0.9997279441118379 -4.4618713328667663E-4 2.720558881619787E-4 4.4618713328667663E-4
3.9835374121149175E7 2.87777202903591E-4 5.077466537981909E-4 0.9997122227970965 -5.077466537981909E-4 0.9997122227970965 -5.077466537981909E-4 2.87777202903591E-4 5.077466537981909E-4
4.165952160120533E7 3.0659505637738404E-4 5.695162580731702E-4 0.9996934049436225 -5.695162580731702E-4 0.9996934049436225 -5.695162580731702E-4 3.0659505637738404E-4 5.695162580731702E-4
4.356720071871697E7 3.2915036868400634E-4 6.307690009578283E-4 0.9996708496313161 -6.307690009578283E-4 0.9996708496313161 -6.307690009578283E-4 3.2915036868400634E-4 6.307690009578283E-4
4.556223656706753E7 3.559267205854673E-4 6.902082062703937E-4 0.9996440732794146 -6.902082062703937E-4 0.9996440732794146 -6.902082062703937E-4 3.559267205854673E-4 6.902082062703937E-4
4.7648629398895085E7 3.867767947110993E-4 7.458447558083396E-4 0.9996132232052891 -7.458447558083396E-4 0.9996132232052891 -7.458447558083396E-4 3.867767947110993E-4 7.458447558083396E-4
4.9830562647012316E7 4.2012550478501596E-4 7.953069634474938E-4 0.9995798744952151 -7.953069634474938E-4 0.9995798744952151 -7.953069634474938E-4 4.2012550478501596E-4 7.953069634474938E-4
5.211241131261991E7 4.523288601167983E-4 8.371508350514768E-4 0.9995476711398832 -8.371508350514768E-4 0.9995476711398832 -8.371508350514768E-4 4.523288601167983E-4 8.371508350514768E-4
5.449875073763604E7 4.786151877729464E-4 8.730105274781648E-4 0.9995213848122272 -8.730105274781648E-4 0.9995213848122272 -8.730105274781648E-4 4.786151877729464E-4 8.730105274781648E-4
5.6994365778727934E7 4.964578824652215E-4 9.082274654089574E-4 0.9995035421175348 -9.082274654089574E-4 0.9995035421175348 -9.082274654089574E-4 4.964578824652215E-4 9.082274654089574E-4
5.960426040144389E7 5.084691616408487E-4 9.485168386077312E-4 0.9994915308383593 -9.485168386077312E-4 0.9994915308383593 -9.485168386077312E-4 5.084691616408487E-4 9.485168386077312E-4
6.233366771367935E7 5.208092304215845E-4 9.95297845532841E-4 0.9994791907695785 -9.95297845532841E-4 0.9994791907695785 -9.95297845532841E-4 5.208092304215845E-4 9.95297845532841E-4
6.518806045859894E7 5.384834618712021E-4 0.0010443135218578508 0.9994615165381289 -0.0010443135218578508 0.9994615165381289 -0.0010443135218578508 5.384834618712021E-4 0.0010443135218578508
6.817316198804997E7 5.610545654412806E-4 0.0010879370141583659 0.9994389454345588 -0.0010879370141583659 0.9994389454345588 -0.0010879370141583659 5.610545654412806E-4 0.0010879370141583659
7.129495773847401E7 5.803869086573156E-4 0.0011207480887118362 0.9994196130913426 -0.0011207480887118362 0.9994196130913426 -0.0011207480887118362 5.803869086573156E-4 0.0011207480887118362
7.455970723232402E7 5.849192876609771E-4 0.0011472387591382372 0.999415080712339 -0.0011472387591382372 0.999415080712339 -0.0011472387591382372 5.849192876609771E-4 0.0011472387591382372
7.797395662905188E7 5.716981105593922E-4 0.0011810812593792766 0.9994283018894408 -0.0011810812593792766 0.9994283018894408 -0.0011810812593792766 5.716981105593922E-4 0.0011810812593792766
8.154455185083437E7 5.497981733432514E-4 0.001231873333875173 0.9994502018266568 -0.001231873333875173 0.9994502018266568 -0.001231873333875173 5.497981733432514E-4 0.001231873333875173
8.527865230935192E7 5.296232119162606E-4 0.00129880738143087 0.9994703767880836 -0.00129880738143087 0.9994703767880836 -0.00129880738143087 5.296232119162606E-4 0.00129880738143087
8.918374526114874E7 5.159663619518124E-4 0.0013765048930214577 0.9994840336380483 -0.0013765048930214577 0.9994840336380483 -0.0013765048930214577 5.159663619518124E-4 0.0013765048930214577
9.326766082035308E7 5.092929801910871E-4 0.0014603684589332955 0.9994907070198088 -0.0014603684589332955 0.9994907070198088 -0.0014603684589332955 5.092929801910871E-4 0.0014603684589332955
9.7538587658865E7 5.08462852496708E-4 0.001547727214673191 0.9994915371475034 -0.001547727214673191 0.9994915371475034 -0.001547727214673191 5.08462852496708E-4 0.001547727214673191
1.0200508942548664E8 5.121300020472782E-4 0.0016373075836306828 0.9994878699979525 -0.0016373075836306828 0.9994878699979525 -0.0016373075836306828 5.121300020472782E-4 0.0016373075836306828
1.0667612191692284E8 5.191727713572285E-4 0.0017286140482398451 0.9994808272286427 -0.0017286140482398451 0.9994808272286427 -0.0017286140482398451 5.191727713572285E-4 0.0017286140482398451
1.1156105103507556E8 5.287448173764713E-4 0.0018215433416450533 0.9994712551826237 -0.0018215433416450533 0.9994712551826237 -0.0018215433416450533 5.287448173764713E-4 0.0018215433416450533
1.1666967156664492E8 5.402240904651887E-4 0.0019161822507524516 0.9994597759095348 -0.0019161822507524516 0.9994597759095348 -0.0019161822507524516 5.402240904651887E-4 0.0019161822507524516
1.2201222682268488E8 5.531517602434191E-4 0.0020127085635435324 0.9994468482397566 -0.0020127085635435324 0.9994468482397566 -0.0020127085635435324 5.531517602434191E-4 0.0020127085635435324
1.275994291775004E8 5.671836781863531E-4 0.002111344163497859 0.9994328163218136 -0.002111344163497859 0.9994328163218136 -0.002111344163497859 5.671836781863531E-4 0.002111344163497859
1.3344248154806052E8 5.820560530885095E-4 0.0022123334755628126 0.9994179439469116 -0.0022123334755628126 0.9994179439469116 -0.0022123334755628126 5.820560530885095E-4 0.0022123334755628126
1.3955309985700467E8 5.97562227077561E-4 0.0023159340209996677 0.9994024377729224 -0.0023159340209996677 0.9994024377729224 -0.0023159340209996677 5.97562227077561E-4 0.0023159340209996677
1.4594353652427363E8 6.135372313944859E-4 0.002422412660284301 0.9993864627686055 -0.002422412660284301 0.9993864627686055 -0.002422412660284301 6.135372313944859E-4 0.002422412660284301
1.5262660503447738E8 6.298475750940617E-4 0.002532044424792394 0.999370152424906 -0.002532044424792394 0.999370152424906 -0.002532044424792394 6.298475750940617E-4 0.002532044424792394
1.5961570562925106E8 6.463844956848959E-4 0.002645112446543498 0.9993536155043151 -0.002645112446543498 0.9993536155043151 -0.002645112446543498 6.463844956848959E-4 0.002645112446543498
1.6692485217612383E8 6.630594828702811E-4 0.0027619082787088715 0.9993369405171297 -0.0027619082787088715 0.9993369405171297 -0.0027619082787088715 6.630594828702811E-4 0.0027619082787088715
1.7456870026776627E8 6.798012862267984E-4 0.0028827322844430427 0.9993201987137732 -0.0028827322844430427 0.9993201987137732 -0.0028827322844430427 6.798012862267984E-4 0.0028827322844430427
1.8256257660796764E8 6.965538838820611E-4 0.0030078939616983197 0.9993034461161179 -0.0030078939616983197 0.9993034461161179 -0.0030078939616983197 6.965538838820611E-4 0.0030078939616983197
1.909225097432551E8 7.132750655569153E-4 0.003137712165111408 0.999286724934443 -0.003137712165111408 0.999286724934443 -0.003137712165111408 7.132750655569153E-4 0.003137712165111408
1.996652622017855E8 7.29935400745461E-4 0.0032725152306455935 0.9992700645992545 -0.0032725152306455935 0.9992700645992545 -0.0032725152306455935 7.29935400745461E-4 0.0032725152306455935
2.088083641039402E8 7.465174417862078E-4 0.0034126410281594866 0.9992534825582138 -0.0034126410281594866 0.9992534825582138 -0.0034126410281594866 7.465174417862078E-4 0.0034126410281594866
2.1837014831202695E8 7.630150652344037E-4 0.0035584369734829955 0.9992369849347655 -0.0035584369734829955 0.9992369849347655 -0.0035584369734829955 7.630150652344037E-4 0.0035584369734829955
2.283697871895589E8 7.794328916083593E-4 0.00371026003117522 0.9992205671083916 -0.00371026003117522 0.9992205671083916 -0.00371026003117522 7.794328916083593E-4 0.00371026003117522
2.38827331043819E8 7.957857485848491E-4 0.0038684767352933857 0.9992042142514153 -0.0038684767352933857 0.9992042142514153 -0.0038684767352933857 7.957857485848491E-4 0.0038684767352933857
2.4976374832879743E8 8.120981595402817E-4 0.004033463250107382 0.9991879018404595 -0.004033463250107382 0.9991879018404595 -0.004033463250107382 8.120981595402817E-4 0.004033463250107382
2.612009676891008E8 8.284038503119103E-4 0.004205605486851681 0.999171596149688 -0.004205605486851681 0.999171596149688 -0.004205605486851681 8.284038503119103E-4 0.004205605486851681
2.731619219291499E8 8.447452738114268E-4 0.004385299286972605 0.9991552547261884 -0.004385299286972605 0.9991552547261884 -0.004385299286972605 8.447452738114268E-4 0.004385299286972605
2.85670593995814E8 8.611731558326297E-4 0.004572950677291295 0.9991388268441674 -0.004572950677291295 0.9991388268441674 -0.004572950677291295 8.611731558326297E-4 0.004572950677291295
2.987520650666969E8 8.777460669258466E-4 0.004768976198278556 0.9991222539330742 -0.004768976198278556 0.9991222539330742 -0.004768976198278556 8.777460669258466E-4 0.004768976198278556
3.124325648404804E8 8.94530025225327E-4 0.004973803303323559 0.9991054699747747 -0.004973803303323559 0.9991054699747747 -0.004973803303323559 8.94530025225327E-4 0.004973803303323559
3.2673952413018024E8 9.115981341185878E-4 0.005187870824493953 0.9990884018658813 -0.005187870824493953 0.9990884018658813 -0.005187870824493953 9.115981341185878E-4 0.005187870824493953
3.4170162986475027E8 9.290302570262307E-4 0.005411629498791182 0.9990709697429738 -0.005411629498791182 0.9990709697429738 -0.005411629498791182 9.290302570262307E-4 0.005411629498791182
3.573488826093389E8 9.469127296102976E-4 0.0056455425482347535 0.9990530872703898 -0.0056455425482347535 0.9990530872703898 -0.0056455425482347535 9.469127296102976E-4 0.0056455425482347535
3.737126567195109E8 9.653381076665088E-4 0.0058900863071736035 0.9990346618923334 -0.0058900863071736035 0.9990346618923334 -0.0058900863071736035 9.653381076665088E-4 0.0058900863071736035
3.908257632500721E8 9.844049469394742E-4 0.006145750890933571 0.9990155950530607 -0.006145750890933571 0.9990155950530607 -0.006145750890933571 9.844049469394742E-4 0.006145750890933571
4.087225157446121E8 0.0010042176092438185 0.00641304090117872 0.9989957823907564 -0.00641304090117872 0.9989957823907564 -0.00641304090117872 0.0010042176092438185 0.00641304090117872
4.274387990377044E8 0.0010248860876604306 0.006692476165118104 0.9989751139123395 -0.006692476165118104 0.9989751139123395 -0.006692476165118104 0.0010248860876604306 0.006692476165118104
4.4701214120769453E8 0.0010465258422673472 0.006984592507862487 0.9989534741577326 -0.006984592507862487 0.9989534741577326 -0.006984592507862487 0.0010465258422673472 0.006984592507862487
4.6748178882437414E8 0.001069257636911265 0.00728994255978033 0.9989307423630889 -0.00728994255978033 0.9989307423630889 -0.00728994255978033 0.001069257636911265 0.00728994255978033
4.888887856423943E8 0.0010932073669782123 0.007609096603574755 0.9989067926330218 -0.007609096603574755 0.9989067926330218 -0.007609096603574755 0.0010932073669782123 0.007609096603574755
5.1127605489823437E8 0.0011185058680354175 0.007942643468970946 0.9988814941319645 -0.007942643468970946 0.9988814941319645 -0.007942643468970946 0.0011185058680354175 0.007942643468970946
5.3468848537570965E8 0.0011452886956543828 0.008291191486326259 0.9988547113043457 -0.008291191486326259 0.9988547113043457 -0.008291191486326259 0.0011452886956543828 0.008291191486326259
5.591730214126215E8 0.001173695867762145 0.008655369514112582 0.9988263041322378 -0.008655369514112582 0.9988263041322378 -0.008655369514112582 0.001173695867762145 0.008655369514112582
5.847787570289875E8 0.0012038715625879899 0.009035828059007683 0.9987961284374123 -0.009035828059007683 0.9987961284374123 -0.009035828059007683 0.0012038715625879899 0.009035828059007683
6.115570343656238E8 0.001235963767767793 0.009433240511189529 0.9987640362322322 -0.009433240511189529 0.9987640362322322 -0.009433240511189529 0.001235963767767793 0.009433240511189529
6.395615466304238E8 0.0012701238795287228 0.009848304521237016 0.9987298761204714 -0.009848304521237016 0.9987298761204714 -0.009848304521237016 0.0012701238795287228 0.009848304521237016
6.688484457587857E8 0.0013065062551853085 0.010281743548654992 0.9986934937448149 -0.010281743548654992 0.9986934937448149 -0.010281743548654992 0.0013065062551853085 0.010281743548654992
6.994764550040311E8 0.0013452677274932818 0.010734308615267868 0.9986547322725069 -0.010734308615267868 0.9986547322725069 -0.010734308615267868 0.0013452677274932818 0.010734308615267868
7.3150698668358E8 0.0013865670957529106 0.011206780299339681 0.9986134329042472 -0.011206780299339681 0.9986134329042472 -0.011206780299339681 0.0013865670957529106 0.011206780299339681
7.650042653169916E8 0.0014305646158965686 0.01169997100801692 0.9985694353841036 -0.01169997100801692 0.9985694353841036 -0.01169997100801692 0.0014305646158965686 0.01169997100801692
8.00035456402737E8 0.001477421520032466 0.012214727566273405 0.9985225784799673 -0.012214727566273405 0.9985225784799673 -0.012214727566273405 0.001477421520032466 0.012214727566273405
8.366708010919645E8 0.00152729960485705 0.012751934159686546 0.9984727003951429 -0.012751934159686546 0.9984727003951429 -0.012751934159686546 0.00152729960485705 0.012751934159686546
8.749837570292381E8 0.0015803609377029319 0.013312515665835103 0.998419639062297 -0.013312515665835103 0.998419639062297 -0.013312515665835103 0.0015803609377029319 0.013312515665835103
9.150511456427057E8 0.0016367677383670638 0.013897441404696695 0.9983632322616331 -0.013897441404696695 0.9983632322616331 -0.013897441404696695 0.0016367677383670638 0.013897441404696695
9.569533061789705E8 0.0016966825037809342 0.014507729332048235 0.9983033174962191 -0.014507729332048235 0.9983033174962191 -0.014507729332048235 0.0016966825037809342 0.014507729332048235
1.0007742567915817E9 0.0017602684504876146 0.015144450691603702 0.9982397315495125 -0.015144450691603702 0.9982397315495125 -0.015144450691603702 0.0017602684504876146 0.015144450691603702
1.0466018630060829E9 0.00182769035619566 0.01580873513170346 0.9981723096438043 -0.01580873513170346 0.9981723096438043 -0.01580873513170346 0.00182769035619566 0.01580873513170346
1.0945280138994675E9 0.0018991158858330005 0.01650177628127512 0.998100884114167 -0.01650177628127512 0.998100884114167 -0.01650177628127512 0.0018991158858330005 0.01650177628127512
1.1446488063472402E9 0.0019747174890721525 0.01722483776820904 0.9980252825109279 -0.01722483776820904 0.9980252825109279 -0.01722483776820904 0.0019747174890721525 0.01722483776820904
1.1970647377075796E9 0.002054674954977164 0.01797925965216733 0.9979453250450226 -0.01797925965216733 0.9979453250450226 -0.01797925965216733 0.002054674954977164 0.01797925965216733
1.25188090732889E9 0.002139178705242177 0.018766465234275484 0.997860821294758 -0.018766465234275484 0.997860821294758 -0.018766465234275484 0.002139178705242177 0.018766465234275484
1.3092072272848508E9 0.00222843390081707 0.01958796819937031 0.997771566099183 -0.01958796819937031 0.997771566099183 -0.01958796819937031 0.00222843390081707 0.01958796819937031
1.3691586427594438E9 0.0023226654283266647 0.020445380043743206 0.9976773345716733 -0.020445380043743206 0.9976773345716733 -0.020445380043743206 0.0023226654283266647 0.020445380043743206
1.4318553625239198E9 0.0024221238238119813 0.021340417743795744 0.997577876176188 -0.021340417743795744 0.997577876176188 -0.021340417743795744 0.0024221238238119813 0.021340417743795744
1.497423099967763E9 0.0025270921836161742 0.02227491162966307 0.9974729078163839 -0.02227491162966307 0.9974729078163839 -0.02227491162966307 0.0025270921836161742 0.02227491162966307
1.5659933251670253E9 0.002637894107758214 0.023250813443304208 0.9973621058922417 -0.023250813443304208 0.9973621058922417 -0.023250813443304208 0.002637894107758214 0.023250813443304208
1.6377035284953644E9 0.0027549027222509696 0.024270204583042795 0.9972450972777493 -0.024270204583042795 0.9972450972777493 -0.024270204583042795 0.0027549027222509696 0.024270204583042795
1.712697496306447E9 0.002878550836120169 0.02533530456589629 0.9971214491638798 -0.02533530456589629 0.9971214491638798 -0.02533530456589629 0.002878550836120169 0.02533530456589629
1.7911255992403932E9 0.003009342309102452 0.026448479774672316 0.9969906576908975 -0.026448479774672316 0.9969906576908975 -0.026448479774672316 0.003009342309102452 0.026448479774672316
1.8731450937324457E9 0.003147864739991031 0.02761225259786744 0.9968521352600088 -0.02761225259786744 0.9968521352600088 -0.02761225259786744 0.003147864739991031 0.02761225259786744
1.9589204373283114E9 0.0032948036363523777 0.028829311115819916 0.9967051963636478 -0.028829311115819916 0.9967051963636478 -0.028829311115819916 0.0032948036363523777 0.028829311115819916
2.0486236184385304E9 0.003450958297165369 0.03010251953531555 0.9965490417028345 -0.03010251953531555 0.9965490417028345 -0.03010251953531555 0.003450958297165369 0.03010251953531555
2.142434501192965E9 0.0036172597347625566 0.03143492962605454 0.9963827402652375 -0.03143492962605454 0.9963827402652375 -0.03143492962605454 0.0036172597347625566 0.03143492962605454
2.240541186086919E9 0.003794791086334835 0.032829793465539193 0.996205208913665 -0.032829793465539193 0.996205208913665 -0.032829793465539193 0.003794791086334835 0.032829793465539193
2.343140387142058E9 0.00398481112511211 0.03429057785390702 0.9960151888748878 -0.03429057785390702 0.9960151888748878 -0.03429057785390702 0.00398481112511211 0.03429057785390702
2.450437826338281E9 0.004188781686981244 0.035820980817258506 0.995811218313019 -0.035820980817258506 0.995811218313019 -0.035820980817258506 0.004188781686981244 0.035820980817258506
2.5626486461075397E9 0.0044084000939461476 0.03742495067753193 0.9955915999060541 -0.03742495067753193 0.9955915999060541 -0.03742495067753193 0.0044084000939461476 0.03742495067753193
2.6799978407165675E9 0.004645638002075757 0.039106708229079294 0.9953543619979243 -0.039106708229079294 0.9953543619979243 -0.039106708229079294 0.004645638002075757 0.039106708229079294
2.8027207074036303E9 0.0049027885583329866 0.04087077262580375 0.9950972114416669 -0.04087077262580375 0.9950972114416669 -0.04087077262580375 0.0049027885583329866 0.04087077262580375
2.9310633181737137E9 0.005182524361338801 0.042721991644415536 0.9948174756386612 -0.042721991644415536 0.9948174756386612 -0.042721991644415536 0.005182524361338801 0.042721991644415536
3.065283013198317E9 0.005487969548808993 0.044665577040297354 0.9945120304511911 -0.044665577040297354 0.9945120304511911 -0.044665577040297354 0.005487969548808993 0.044665577040297354
3.2056489168089914E9 0.005822790471205127 0.04670714573423389 0.994177209528795 -0.04670714573423389 0.994177209528795 -0.04670714573423389 0.005822790471205127 0.04670714573423389
3.352442477119432E9 0.006191310992288453 0.0488527675249921 0.9938086890077116 -0.0488527675249921 0.9938086890077116 -0.0488527675249921 0.006191310992288453 0.0488527675249921
3.5059580303579197E9 0.006598660682762882 0.05110901984697546 0.9934013393172373 -0.05110901984697546 0.9934013393172373 -0.05110901984697546 0.006598660682762882 0.05110901984697546
3.666503391041871E9 0.007050967341329219 0.05348304965952313 0.992949032658671 -0.05348304965952313 0.992949032658671 -0.05348304965952313 0.007050967341329219 0.05348304965952313
3.834400469177637E9 0.007555609836761818 0.05598264163693276 0.9924443901632383 -0.05598264163693276 0.9924443901632383 -0.05598264163693276 0.007555609836761818 0.05598264163693276
4.0099859157233253E9 0.008121553894479504 0.05861629000828553 0.9918784461055203 -0.05861629000828553 0.9918784461055203 -0.05861629000828553 0.008121553894479504 0.05861629000828553
4.1936117976086297E9 0.008759803186330283 0.06139326790410781 0.9912401968136696 -0.06139326790410781 0.9912401968136696 -0.06139326790410781 0.008759803186330283 0.06139326790410781
4.3856463036654005E9 0.009484012502143199 0.06432368147247054 0.9905159874978569 -0.06432368147247054 0.9905159874978569 -0.06432368147247054 0.009484012502143199 0.06432368147247054
4.58647448288416E9 0.01031133128540615 0.06741848364081467 0.9896886687145938 -0.06741848364081467 0.9896886687145938 -0.06741848364081467 0.01031133128540615 0.06741848364081467
4.796499016477109E9 0.011263577990369927 0.070689399096507 0.98873642200963 -0.070689399096507 0.98873642200963 -0.070689399096507 0.011263577990369927 0.070689399096507
5.01614102529542E9 0.012368893716202596 0.07414866792927269 0.9876311062837974 -0.07414866792927269 0.9876311062837974 -0.07414866792927269 0.012368893716202596 0.07414866792927269
5.245840914220046E9 0.0136640941073858 0.07780843097739795 0.9863359058926141 -0.07780843097739795 0.9863359058926141 -0.07780843097739795 0.0136640941073858 0.07780843097739795
5.486059255218861E9 0.015198038069551964 0.08167941657758238 0.9848019619304481 -0.08167941657758238 0.9848019619304481 -0.08167941657758238 0.015198038069551964 0.08167941657758238
5.737277710841024E9 0.01703645868027883 0.08576826851539164 0.9829635413197212 -0.08576826851539164 0.9829635413197212 -0.08576826851539164 0.01703645868027883 0.08576826851539164
6.0E9 0.01926881773373906 0.09007222271394281 0.9807311822662608 -0.09007222271394281 0.9807311822662608 -0.09007222271394281 0.01926881773373906 0.09007222271394281
