! agentee sdr-rf
! ports RX_SMA RX_BALUN TX_SMA TX_BALUN
# Hz S RI R 50
7.000000e7 1.612272e-2 7.322703e-4 9.668293e-1 -2.470708e-2 1.132153e-5 1.169649e-5 9.160105e-6 -1.086800e-5
 9.670209e-1 -2.484827e-2 1.477946e-2 1.441874e-5 1.055387e-5 -1.121442e-5 6.838052e-5 -5.404591e-6
 -1.472439e-5 2.028086e-5 -3.344283e-6 -7.561383e-6 1.553978e-2 1.674909e-3 9.676711e-1 -2.562072e-2
 -4.280050e-6 -7.149158e-6 -1.564848e-6 1.913982e-5 9.676623e-1 -2.567461e-2 1.394400e-2 1.039022e-3
8.983278e7 1.607797e-2 9.515407e-4 9.667288e-1 -3.172082e-2 1.132164e-5 1.500025e-5 8.860586e-6 -1.393952e-5
 9.669046e-1 -3.189941e-2 1.462089e-2 3.869452e-5 1.022298e-5 -1.437933e-5 6.694642e-5 -6.694468e-6
 -1.378313e-5 2.586999e-5 -3.361315e-6 -9.726500e-6 1.553908e-2 2.156163e-3 9.675208e-1 -3.288675e-2
 -4.247738e-6 -9.207274e-6 -1.751996e-7 2.434134e-5 9.675076e-1 -3.295543e-2 1.383842e-2 1.346989e-3
1.096656e8 1.602357e-2 1.179429e-3 9.666015e-1 -3.874446e-2 1.131933e-5 1.829683e-5 8.486438e-6 -1.700524e-5
 9.667578e-1 -3.895857e-2 1.442515e-2 7.775819e-5 9.810224e-6 -1.753497e-5 6.518588e-5 -7.807971e-6
 -1.263040e-5 3.134516e-5 -3.385332e-6 -1.190836e-5 1.553902e-2 2.642328e-3 9.673321e-1 -4.015792e-2
 -4.211718e-6 -1.128919e-5 1.524104e-6 2.938338e-5 9.673136e-1 -4.024104e-2 1.370797e-2 1.664939e-3
1.294983e8 1.596045e-2 1.417657e-3 9.664461e-1 -4.577996e-2 1.131302e-5 2.158502e-5 8.037485e-6 -2.006376e-5
 9.665798e-1 -4.602734e-2 1.419365e-2 1.346094e-4 9.315773e-6 -2.067921e-5 6.311796e-5 -8.709792e-6
 -1.128036e-5 3.668433e-5 -3.418148e-6 -1.411040e-5 1.554011e-2 3.134398e-3 9.671046e-1 -4.743526e-2
 -4.174791e-6 -1.339966e-5 3.510696e-6 3.423644e-5 9.670798e-1 -4.753237e-2 1.355350e-2 1.994931e-3
1.493311e8 1.588971e-2 1.667842e-3 9.662615e-1 -5.282912e-2 1.130091e-5 2.486388e-5 7.513538e-6 -2.311363e-5
 9.663694e-1 -5.310720e-2 1.392805e-2 2.120954e-4 8.739858e-6 -2.380995e-5 6.076499e-5 -9.366709e-6
 -9.749572e-6 4.186724e-5 -3.461922e-6 -1.633592e-5 1.554296e-2 3.633312e-3 9.668375e-1 -5.471972e-2
 -4.140259e-6 -1.554317e-5 5.758684e-6 3.887421e-5 9.668053e-1 -5.483034e-2 1.337602e-2 2.338941e-3
1.691639e8 1.581259e-2 1.931481e-3 9.660458e-1 -5.989361e-2 1.128096e-5 2.813269e-5 6.914405e-6 -2.615331e-5
 9.661253e-1 -6.019952e-2 1.363025e-2 3.128891e-4 8.082759e-6 -2.692502e-5 5.815239e-5 -9.747898e-6
 -8.056694e-6 4.687569e-5 -3.519150e-6 -1.858804e-5 1.554827e-2 4.139950e-3 9.665299e-1 -6.201219e-2
 -4.111896e-6 -1.772384e-5 8.239116e-6 4.327406e-5 9.664895e-1 -6.213577e-2 1.317669e-2 2.698850e-3
1.889967e8 1.573048e-2 2.209941e-3 9.657975e-1 -6.697490e-2 1.125094e-5 3.139104e-5 6.239904e-6 -2.918120e-5
 9.658461e-1 -6.730554e-2 1.330232e-2 4.394686e-4 7.344821e-6 -3.002224e-5 5.530836e-5 -9.825217e-6
 -6.222274e-6 5.169373e-5 -3.592655e-6 -2.086968e-5 1.555682e-2 4.655124e-3 9.661809e-1 -6.931349e-2
 -4.093917e-6 -1.994542e-5 1.092050e-5 4.741735e-5 9.661315e-1 -6.944940e-2 1.295680e-2 3.076431e-3
2.088294e8 1.564487e-2 2.504441e-3 9.655146e-1 -7.407431e-2 1.120848e-5 3.463884e-5 5.489875e-6 -3.219562e-5
 9.655303e-1 -7.442635e-2 1.294654e-2 5.941001e-4 6.526457e-6 -3.309939e-5 5.226360e-5 -9.573446e-6
 -4.268444e-6 5.630784e-5 -3.685572e-6 -2.318350e-5 1.556946e-2 5.179571e-3 9.657895e-1 -7.662434e-2
 -4.090940e-6 -2.221126e-5 1.376938e-5 5.128976e-5 9.657303e-1 -7.677191e-2 1.271776e-2 3.473339e-3
2.286622e8 1.555737e-2 2.816048e-3 9.651950e-1 -8.119292e-2 1.115109e-5 3.787630e-5 4.664192e-6 -3.519479e-5
 9.651762e-1 -8.156288e-2 1.256535e-2 7.788234e-4 5.628159e-6 -3.615424e-5 4.905099e-5 -8.970504e-6
 -2.218622e-6 6.070713e-5 -3.801335e-6 -2.553194e-5 1.558710e-2 5.713947e-3 9.653547e-1 -8.394536e-2
 -4.107944e-6 -2.452423e-5 1.675088e-5 5.488146e-5 9.652849e-1 -8.410387e-2 1.246108e-2 3.891104e-3
2.484950e8 1.546967e-2 3.145666e-3 9.648367e-1 -8.833163e-2 1.107624e-5 4.110401e-5 3.762780e-6 -3.817686e-5
 9.647822e-1 -8.871591e-2 1.216133e-2 9.954399e-4 4.650505e-6 -3.918452e-5 4.570521e-5 -7.997613e-6
 -9.720071e-8 6.488340e-5 -3.943660e-6 -2.791711e-5 1.561073e-2 6.258824e-3 9.648752e-1 -9.127707e-2
 -4.150227e-6 -2.688673e-5 1.982938e-5 5.818726e-5 9.647942e-1 -9.144576e-2 1.218840e-2 4.331119e-3
2.683278e8 1.538353e-2 3.494029e-3 9.644375e-1 -9.549110e-2 1.098134e-5 4.432287e-5 2.785628e-6 -4.113989e-5
 9.643464e-1 -9.588603e-2 1.173714e-2 1.245504e-3 3.594165e-6 -4.218793e-5 4.226246e-5 -6.639438e-6
 2.070777e-6 6.883121e-5 -4.116520e-6 -3.034083e-5 1.564135e-2 6.814686e-3 9.643499e-1 -9.861991e-2
 -4.223359e-6 -2.930063e-5 2.296908e-5 6.120663e-5 9.642570e-1 -9.879797e-2 1.190140e-2 4.794640e-3
2.881605e8 1.530075e-2 3.861702e-3 9.639950e-1 -1.026718e-1 1.086383e-5 4.753417e-5 1.732800e-6 -4.408186e-5
 9.638670e-1 -1.030737e-1 1.129556e-2 1.530319e-3 2.459914e-6 -4.516217e-5 3.876003e-5 -4.884174e-6
 4.259938e-6 7.254797e-5 -4.324127e-6 -3.280456e-5 1.568003e-2 7.381924e-3 9.637775e-1 -1.059742e-1
 -4.333132e-6 -3.176726e-5 2.613461e-5 6.394370e-5 9.636722e-1 -1.061608e-1 1.160187e-2 5.282775e-3
3.079933e8 1.522317e-2 4.249075e-3 9.635071e-1 -1.098739e-1 1.072121e-5 5.073954e-5 6.044538e-7 -4.700069e-5
 9.633420e-1 -1.102791e-1 1.083940e-2 1.850930e-3 1.248635e-6 -4.810492e-5 3.523599e-5 -2.723604e-6
 6.444904e-6 7.603387e-5 -4.570903e-6 -3.530941e-5 1.572785e-2 7.960836e-3 9.631567e-1 -1.133401e-1
 -4.485512e-6 -3.428740e-5 2.929166e-5 6.640707e-5 9.630384e-1 -1.135343e-1 1.129163e-2 5.796485e-3
3.278261e8 1.515265e-2 4.656363e-3 9.629713e-1 -1.170975e-1 1.055110e-5 5.394096e-5 -5.991519e-7 -4.989422e-5
 9.627697e-1 -1.175024e-1 1.037153e-2 2.208129e-3 -3.867506e-8 -5.101386e-5 3.172883e-5 -1.531126e-7
 8.600601e-6 7.929187e-5 -4.861448e-6 -3.785607e-5 1.578593e-2 8.551627e-3 9.624862e-1 -1.207177e-1
 -4.686582e-6 -3.686124e-5 3.240752e-5 6.860970e-5 9.623546e-1 -1.209187e-1 1.097255e-2 6.336583e-3
3.476589e8 1.509104e-2 5.083614e-3 9.623855e-1 -1.243424e-1 1.035123e-5 5.714074e-5 -1.877643e-6 -5.276023e-5
 9.621480e-1 -1.247435e-1 9.894806e-3 2.602456e-3 -1.400896e-6 -5.388667e-5 2.827706e-5 2.828337e-6
 1.070257e-5 8.232762e-5 -5.200516e-6 -4.044486e-5 1.585540e-2 9.154404e-3 9.617646e-1 -1.281070e-1
 -4.942491e-6 -3.948840e-5 3.545162e-5 7.056856e-5 9.616194e-1 -1.283139e-1 1.064654e-2 6.903728e-3
3.674916e8 1.504018e-2 5.530705e-3 9.617473e-1 -1.316080e-1 1.011955e-5 6.034152e-5 -3.230518e-6 -5.559646e-5
 9.614750e-1 -1.320021e-1 9.412064e-3 3.034203e-3 -2.836782e-6 -5.672106e-5 2.491893e-5 6.218258e-6
 1.272724e-5 8.514933e-5 -5.592972e-6 -4.307562e-5 1.593738e-2 9.769182e-3 9.609906e-1 -1.355079e-1
 -5.259398e-6 -4.216789e-5 3.839602e-5 7.230436e-5 9.608315e-1 -1.357198e-1 1.031552e-2 7.498431e-3
3.873244e8 1.500186e-2 5.997354e-3 9.610546e-1 -1.388939e-1 9.854203e-6 6.354621e-5 -4.657143e-6 -5.840062e-5
 9.607490e-1 -1.392778e-1 8.926113e-3 3.503423e-3 -4.344956e-6 -5.951476e-5 2.169207e-5 1.001073e-5
 1.465220e-5 8.776762e-5 -6.043761e-6 -4.574778e-5 1.603300e-2 1.039588e-2 9.601629e-1 -1.429200e-1
 -5.643418e-6 -4.489816e-5 4.121584e-5 7.384116e-5 9.599896e-1 -1.431361e-1 9.981393e-3 8.121057e-3
4.071572e8 1.497783e-2 6.483122e-3 9.603052e-1 -1.461991e-1 9.553592e-6 6.675804e-5 -6.156739e-6 -6.117038e-5
 9.599680e-1 -1.465699e-1 8.439694e-3 4.009943e-3 -5.923909e-6 -6.226552e-5 1.863318e-5 1.419654e-5
 1.645647e-5 9.019541e-5 -6.557864e-6 -4.846029e-5 1.614337e-2 1.103434e-2 9.592801e-1 -1.503432e-1
 -6.100569e-6 -4.767704e-5 4.388963e-5 7.520588e-5 9.590925e-1 -1.505624e-1 9.646086e-3 8.771825e-3
4.269900e8 1.496978e-2 6.987428e-3 9.594971e-1 -1.535228e-1 9.216407e-6 6.998043e-5 -7.728381e-6 -6.390343e-5
 9.591303e-1 -1.538778e-1 7.955467e-3 4.553368e-3 -7.571999e-6 -6.497117e-5 1.577776e-5 1.876328e-5
 1.812067e-5 9.244765e-5 -7.140261e-6 -5.121165e-5 1.626959e-2 1.168430e-2 9.583410e-1 -1.577768e-1
 -6.636716e-6 -5.050182e-5 4.639972e-5 7.642789e-5 9.581390e-1 -1.579983e-1 9.311486e-3 9.450815e-3
4.468227e8 1.497931e-2 7.509553e-3 9.586284e-1 -1.608637e-1 8.841648e-6 7.321707e-5 -9.370987e-6 -6.659743e-5
 9.582342e-1 -1.612006e-1 7.475996e-3 5.133105e-3 -9.287448e-6 -6.762958e-5 1.315982e-5 2.369558e-5
 1.962725e-5 9.454115e-5 -7.795884e-6 -5.399985e-5 1.641273e-2 1.234541e-2 9.573442e-1 -1.652204e-1
 -7.257519e-6 -5.336920e-5 4.873243e-5 7.753847e-5 9.571279e-1 -1.654434e-1 8.979453e-3 1.015797e-2
4.666555e8 1.500797e-2 8.048650e-3 9.576972e-1 -1.682205e-1 8.428649e-6 7.647180e-5 -1.108332e-5 -6.925009e-5
 9.572781e-1 -1.685373e-1 7.003726e-3 5.748371e-3 -1.106834e-5 -7.023869e-5 1.081165e-5 2.897528e-5
 2.096065e-5 9.649433e-5 -8.529574e-6 -5.682244e-5 1.657383e-2 1.301726e-2 9.562885e-1 -1.726732e-1
 -7.968383e-6 -5.627536e-5 5.087826e-5 7.857032e-5 9.560579e-1 -1.728968e-1 8.651804e-3 1.089311e-2
4.864883e8 1.505716e-2 8.603761e-3 9.567018e-1 -1.755918e-1 7.977095e-6 7.974861e-5 -1.286399e-5 -7.185915e-5
 9.562604e-1 -1.758867e-1 6.540976e-3 6.398208e-3 -1.291265e-5 -7.279656e-5 8.763623e-6 3.458163e-5
 2.210741e-5 9.832699e-5 -9.346036e-6 -5.967648e-5 1.675388e-2 1.369935e-2 9.551728e-1 -1.801347e-1
 -8.774406e-6 -5.921596e-5 5.283203e-5 7.955697e-5 9.549280e-1 -1.803580e-1 8.330308e-3 1.165594e-2
5.063211e8 1.512823e-2 9.173826e-3 9.556408e-1 -1.829760e-1 7.487044e-6 8.305160e-5 -1.471144e-5 -7.442240e-5
 9.551797e-1 -1.832475e-1 6.089924e-3 7.081509e-3 -1.481819e-5 -7.530130e-5 7.043951e-6 4.049152e-5
 2.305631e-5 1.000601e-4 -1.024980e-5 -6.255856e-5 1.695386e-2 1.439111e-2 9.539959e-1 -1.876038e-1
 -9.680336e-6 -6.218616e-5 5.459287e-5 8.053227e-5 9.537370e-1 -1.878261e-1 8.016673e-3 1.244602e-2
5.261538e8 1.522238e-2 9.757691e-3 9.545127e-1 -1.903714e-1 6.958929e-6 8.638496e-5 -1.662397e-5 -7.693770e-5
 9.540348e-1 -1.906186e-1 5.652599e-3 7.797025e-3 -1.678268e-5 -7.775117e-5 5.678574e-6 4.667974e-5
 2.379842e-5 1.017154e-4 -1.124515e-5 -6.546482e-5 1.717466e-2 1.509192e-2 9.527567e-1 -1.950798e-1
 -1.069053e-5 -6.518069e-5 5.616427e-5 8.152989e-5 9.524840e-1 -1.953002e-1 7.712542e-3 1.326284e-2
5.459866e8 1.534072e-2 1.035413e-2 9.533163e-1 -1.977763e-1 6.393575e-6 8.975289e-5 -1.859972e-5 -7.940298e-5
 9.528243e-1 -1.979984e-1 5.230871e-3 8.543390e-3 -1.880372e-5 -8.014454e-5 4.691001e-6 5.311922e-5
 2.432715e-5 1.033153e-4 -1.233613e-5 -6.839097e-5 1.741714e-2 1.580107e-2 9.514541e-1 -2.025616e-1
 -1.180889e-5 -6.819386e-5 5.755392e-5 8.258272e-5 9.511679e-1 -2.027795e-1 7.419487e-3 1.410578e-2
5.658194e8 1.548423e-2 1.096185e-2 9.520505e-1 -2.051889e-1 5.792195e-6 9.315959e-5 -2.063669e-5 -8.181631e-5
 9.515473e-1 -2.053854e-1 4.826448e-3 9.319136e-3 -2.087880e-5 -8.247990e-5 4.102201e-6 5.978127e-5
 2.463827e-5 1.048826e-4 -1.352643e-5 -7.133228e-5 1.768212e-2 1.651783e-2 9.500873e-1 -2.100483e-1
 -1.303888e-5 -7.121957e-5 5.877362e-5 8.372245e-5 9.497878e-1 -2.102629e-1 7.139001e-3 1.497412e-2
5.856522e8 1.565379e-2 1.157950e-2 9.507143e-1 -2.126073e-1 5.156391e-6 9.660924e-5 -2.273274e-5 -8.417581e-5
 9.502026e-1 -2.127780e-1 4.440873e-3 1.012271e-2 -2.300530e-5 -8.475590e-5 3.930527e-6 6.663582e-5
 2.472988e-5 1.064402e-4 -1.481942e-5 -7.428366e-5 1.797033e-2 1.724138e-2 9.486554e-1 -2.175387e-1
 -1.438342e-5 -7.425144e-5 5.983901e-5 8.497906e-5 9.483429e-1 -2.177493e-1 6.872495e-3 1.586706e-2
6.054849e8 1.585012e-2 1.220570e-2 9.493070e-1 -2.200295e-1 4.488153e-6 1.001059e-4 -2.488561e-5 -8.647979e-5
 9.487896e-1 -2.201748e-1 4.075520e-3 1.095250e-2 -2.518052e-5 -8.697134e-5 4.191658e-6 7.365174e-5
 2.460242e-5 1.080108e-4 -1.621804e-5 -7.723964e-5 1.828247e-2 1.797090e-2 9.471575e-1 -2.250316e-1
 -1.584492e-5 -7.728276e-5 6.076939e-5 8.638040e-5 9.468324e-1 -2.252377e-1 6.621295e-3 1.678376e-2
6.253177e8 1.607385e-2 1.283904e-2 9.478279e-1 -2.274537e-1 3.789844e-6 1.036536e-4 -2.709291e-5 -8.872665e-5
 9.473074e-1 -2.275740e-1 3.731594e-3 1.180684e-2 -2.740171e-5 -8.912518e-5 4.898563e-6 8.079700e-5
 2.425854e-5 1.096169e-4 -1.772483e-5 -8.019443e-5 1.861915e-2 1.870551e-2 9.455928e-1 -2.325259e-1
 -1.742522e-5 -8.030659e-5 6.158737e-5 8.795179e-5 9.452556e-1 -2.327269e-1 6.386639e-3 1.772326e-2
6.451505e8 1.632548e-2 1.347809e-2 9.462766e-1 -2.348778e-1 3.064198e-6 1.072561e-4 -2.935214e-5 -9.091496e-5
 9.457555e-1 -2.349740e-1 3.410138e-3 1.268403e-2 -2.966600e-5 -9.121654e-5 6.061494e-6 8.803900e-5
 2.370308e-5 1.112802e-4 -1.934184e-5 -8.314194e-5 1.898094e-2 1.944428e-2 9.439608e-1 -2.400204e-1
 -1.912558e-5 -8.331583e-5 6.231854e-5 8.971565e-5 9.436118e-1 -2.402157e-1 6.169674e-3 1.868461e-2
6.649833e8 1.660540e-2 1.412141e-2 9.446527e-1 -2.423000e-1 2.314294e-6 1.109170e-4 -3.166072e-5 -9.304346e-5
 9.441333e-1 -2.423730e-1 3.112031e-3 1.358236e-2 -3.197051e-5 -9.324474e-5 7.688003e-6 9.534476e-5
 2.294293e-5 1.130217e-4 -2.107061e-5 -8.607585e-5 1.936834e-2 2.018629e-2 9.422607e-1 -2.475138e-1
 -2.094665e-5 -8.630322e-5 6.299110e-5 9.169123e-5 9.419005e-1 -2.477029e-1 5.971458e-3 1.966675e-2
6.848161e8 1.691389e-2 1.476757e-2 9.429560e-1 -2.497183e-1 1.543551e-6 1.146398e-4 -3.401598e-5 -9.511102e-5
 9.424405e-1 -2.497695e-1 2.837993e-3 1.450012e-2 -3.431231e-5 -9.520926e-5 9.782971e-6 1.026811e-4
 2.198692e-5 1.148616e-4 -2.291218e-5 -8.898964e-5 1.978178e-2 2.093057e-2 9.404922e-1 -2.550048e-1
 -2.288849e-5 -8.926141e-5 6.363545e-5 9.389433e-5 9.401211e-1 -2.551873e-1 5.792957e-3 2.066864e-2
7.046488e8 1.725109e-2 1.541516e-2 9.411866e-1 -2.571310e-1 7.556985e-7 1.184277e-4 -3.641516e-5 -9.711674e-5
 9.406768e-1 -2.571616e-1 2.588595e-3 1.543559e-2 -3.668843e-5 -9.710978e-5 1.234866e-5 1.100151e-4
 2.084567e-5 1.168187e-4 -2.486703e-5 -9.187661e-5 2.022163e-2 2.167616e-2 9.386547e-1 -2.624922e-1
 -2.495055e-5 -9.218306e-5 6.428378e-5 9.633710e-5 9.382732e-1 -2.626676e-1 5.635045e-3 2.168916e-2
7.244816e8 1.761708e-2 1.606279e-2 9.393444e-1 -2.645360e-1 -4.524229e-8 1.222835e-4 -3.885547e-5 -9.905986e-5
 9.388420e-1 -2.645479e-1 2.364261e-3 1.638710e-2 -3.909590e-5 -9.894617e-5 1.538478e-5 1.173139e-4
 1.953148e-5 1.189106e-4 -2.693509e-5 -9.472998e-5 2.068821e-2 2.242206e-2 9.367478e-1 -2.699745e-1
 -2.713164e-5 -9.506083e-5 6.496961e-5 9.902790e-5 9.363565e-1 -2.701426e-1 5.498508e-3 2.272721e-2
7.443144e8 1.801181e-2 1.670909e-2 9.374296e-1 -2.719317e-1 -8.549816e-7 1.262098e-4 -4.133408e-5 -1.009398e-4
 9.369361e-1 -2.719265e-1 2.165281e-3 1.735302e-2 -4.153175e-5 -1.007185e-4 1.888859e-5 1.245454e-4
 1.805811e-5 1.211536e-4 -2.911568e-5 -9.754292e-5 2.118175e-2 2.316727e-2 9.347713e-1 -2.774505e-1
 -2.942997e-5 -9.788746e-5 6.572741e-5 1.019712e-4 9.343706e-1 -2.776108e-1 5.384043e-3 2.378164e-2
7.641472e8 1.843516e-2 1.735274e-2 9.354426e-1 -2.793162e-1 -1.668989e-6 1.302090e-4 -4.384812e-5 -1.027563e-4
 9.349592e-1 -2.792959e-1 1.991813e-3 1.833173e-2 -4.399303e-5 -1.024269e-4 2.285496e-5 1.316778e-4
 1.644068e-5 1.235624e-4 -3.140757e-5 -1.003086e-4 2.170246e-2 2.391081e-2 9.327250e-1 -2.849188e-1
 -3.184316e-5 -1.006559e-4 6.659206e-5 1.051675e-4 9.323153e-1 -2.850712e-1 5.292260e-3 2.485131e-2
7.839799e8 1.888690e-2 1.799246e-2 9.333836e-1 -2.866881e-1 -2.482518e-6 1.342830e-4 -4.639472e-5 -1.045090e-4
 9.329113e-1 -2.866546e-1 1.843901e-3 1.932171e-2 -4.647680e-5 -1.040720e-4 2.727652e-5 1.386804e-4
 1.469543e-5 1.261500e-4 -3.380892e-5 -1.030202e-4 2.225045e-2 2.465168e-2 9.306085e-1 -2.923782e-1
 -3.436823e-5 -1.033591e-4 6.759848e-5 1.086133e-4 9.301904e-1 -2.925223e-1 5.223685e-3 2.593507e-2
8.038127e8 1.936674e-2 1.862702e-2 9.312533e-1 -2.940456e-1 -3.290641e-6 1.384334e-4 -4.897101e-5 -1.061981e-4
 9.307927e-1 -2.940010e-1 1.721474e-3 2.032147e-2 -4.898019e-5 -1.056544e-4 3.214375e-5 1.455235e-4
 1.283958e-5 1.289277e-4 -3.631730e-5 -1.056711e-4 2.282580e-2 2.538889e-2 9.284220e-1 -2.998273e-1
 -3.700161e-5 -1.059905e-4 6.878120e-5 1.123013e-4 9.279959e-1 -2.999630e-1 5.178766e-3 2.703177e-2
8.236455e8 1.987431e-2 1.925526e-2 9.290521e-1 -3.013873e-1 -4.088269e-6 1.426614e-4 -5.157414e-5 -1.078237e-4
 9.286037e-1 -3.013335e-1 1.624367e-3 2.132959e-2 -5.150038e-5 -1.071748e-4 3.744512e-5 1.521784e-4
 1.089117e-5 1.319052e-4 -3.892973e-5 -1.082549e-4 2.342853e-2 2.612146e-2 9.261652e-1 -3.072648e-1
 -3.973920e-5 -1.085437e-4 7.017388e-5 1.162204e-4 9.257316e-1 -3.073918e-1 5.157870e-3 2.814029e-2
8.434783e8 2.040919e-2 1.987604e-2 9.267807e-1 -3.087117e-1 -4.870192e-6 1.469679e-4 -5.420129e-5 -1.093862e-4
 9.263447e-1 -3.086509e-1 1.552321e-3 2.234476e-2 -5.403463e-5 -1.086342e-4 4.316722e-5 1.586178e-4
 8.868803e-6 1.350902e-4 -4.164265e-5 -1.107651e-4 2.405861e-2 2.684843e-2 9.238383e-1 -3.146894e-1
 -4.257639e-5 -1.110126e-4 7.180899e-5 1.203557e-4 9.233977e-1 -3.148077e-1 5.161291e-3 2.925950e-2
8.633110e8 2.097088e-2 2.048832e-2 9.244398e-1 -3.160175e-1 -5.631101e-6 1.513533e-4 -5.684972e-5 -1.108863e-4
 9.240161e-1 -3.159516e-1 1.504999e-3 2.336570e-2 -5.658026e-5 -1.100339e-4 4.929492e-5 1.648156e-4
 6.791560e-6 1.384888e-4 -4.445193e-5 -1.131958e-4 2.471594e-2 2.756883e-2 9.214413e-1 -3.220998e-1
 -4.550805e-5 -1.133915e-4 7.371738e-5 1.246890e-4 9.209941e-1 -3.222093e-1 5.189254e-3 3.038830e-2
8.831438e8 2.155884e-2 2.109110e-2 9.220300e-1 -3.233035e-1 -6.365625e-6 1.558178e-4 -5.951671e-5 -1.123248e-4
 9.216183e-1 -3.232345e-1 1.481997e-3 2.439125e-2 -5.913472e-5 -1.113752e-4 5.581146e-5 1.707473e-4
 4.678762e-6 1.421051e-4 -4.735297e-5 -1.155414e-4 2.540040e-2 2.828174e-2 9.189743e-1 -3.294949e-1
 -4.852860e-5 -1.156754e-4 7.592795e-5 1.291986e-4 9.185210e-1 -3.295954e-1 5.241915e-3 3.152560e-2
9.029766e8 2.217250e-2 2.168345e-2 9.195522e-1 -3.305684e-1 -7.068358e-6 1.603609e-4 -6.219966e-5 -1.137025e-4
 9.191520e-1 -3.304981e-1 1.482849e-3 2.542031e-2 -6.169556e-5 -1.126597e-4 6.269865e-5 1.763898e-4
 2.549827e-6 1.459416e-4 -5.034062e-5 -1.177965e-4 2.611181e-2 2.898625e-2 9.164376e-1 -3.368733e-1
 -5.163207e-5 -1.178593e-4 7.846735e-5 1.338600e-4 9.159786e-1 -3.369649e-1 5.319367e-3 3.267034e-2
9.228094e8 2.281123e-2 2.226451e-2 9.170071e-1 -3.378112e-1 -7.733890e-6 1.649820e-4 -6.489603e-5 -1.150207e-4
 9.166177e-1 -3.377414e-1 1.507039e-3 2.645188e-2 -6.426046e-5 -1.138889e-4 6.993700e-5 1.817218e-4
 4.241009e-7 1.499989e-4 -5.340931e-5 -1.199563e-4 2.684994e-2 2.968145e-2 9.138313e-1 -3.442338e-1
 -5.481208e-5 -1.199390e-4 8.135965e-5 1.386458e-4 9.133670e-1 -3.443165e-1 5.421648e-3 3.382151e-2
9.426421e8 2.347440e-2 2.283349e-2 9.143955e-1 -3.450309e-1 -8.356839e-6 1.696800e-4 -6.760341e-5 -1.162806e-4
 9.140160e-1 -3.449631e-1 1.554013e-3 2.748503e-2 -6.682723e-5 -1.150648e-4 7.750585e-5 1.867235e-4
 -1.679296e-6 1.542759e-4 -5.655303e-5 -1.220162e-4 2.761455e-2 3.036649e-2 9.111558e-1 -3.515754e-1
 -5.806193e-5 -1.219108e-4 8.462613e-5 1.435262e-4 9.106865e-1 -3.516491e-1 5.548736e-3 3.497810e-2
9.624749e8 2.416133e-2 2.338964e-2 9.117184e-1 -3.522266e-1 -8.931878e-6 1.744533e-4 -7.031950e-5 -1.174838e-4
 9.113476e-1 -3.521623e-1 1.623184e-3 2.851895e-2 -6.939382e-5 -1.161892e-4 8.538355e-5 1.913769e-4
 -3.741620e-6 1.587700e-4 -5.976538e-5 -1.239725e-4 2.840534e-2 3.104052e-2 9.084114e-1 -3.588968e-1
 -6.137464e-5 -1.237715e-4 8.828505e-5 1.484691e-4 9.079375e-1 -3.589615e-1 5.700564e-3 3.613914e-2
9.823077e8 2.487133e-2 2.393230e-2 9.089765e-1 -3.593973e-1 -9.453764e-6 1.793000e-4 -7.304212e-5 -1.186318e-4
 9.086132e-1 -3.593379e-1 1.713942e-3 2.955286e-2 -7.195836e-5 -1.172644e-4 9.354757e-5 1.956657e-4
 -5.744634e-6 1.634767e-4 -6.303964e-5 -1.258217e-4 2.922198e-2 3.170273e-2 9.055984e-1 -3.661970e-1
 -6.474299e-5 -1.255186e-4 9.235145e-5 1.534410e-4 9.051202e-1 -3.662528e-1 5.877015e-3 3.730372e-2
1.002140e9 2.560372e-2 2.446085e-2 9.061706e-1 -3.665424e-1 -9.917368e-6 1.842179e-4 -7.576923e-5 -1.197263e-4
 9.058135e-1 -3.664889e-1 1.825661e-3 3.058611e-2 -7.451912e-5 -1.182924e-4 1.019747e-4 1.995753e-4
 -7.670744e-6 1.683903e-4 -6.636878e-5 -1.275610e-4 3.006410e-2 3.235234e-2 9.027171e-1 -3.734749e-1
 -6.815959e-5 -1.271501e-4 9.683703e-5 1.584064e-4 9.022351e-1 -3.735218e-1 6.077931e-3 3.847094e-2
1.021973e9 2.635778e-2 2.497476e-2 9.033016e-1 -3.736611e-1 -1.031770e-5 1.892044e-4 -7.849896e-5 -1.207694e-4
 9.029492e-1 -3.736145e-1 1.957709e-3 3.161809e-2 -7.707455e-5 -1.192757e-4 1.106410e-4 2.030931e-4
 -9.503109e-6 1.735035e-4 -6.974557e-5 -1.291882e-4 3.093132e-2 3.298858e-2 8.997682e-1 -3.807293e-1
 -7.161690e-5 -1.286645e-4 1.017501e-4 1.633291e-4 8.992825e-1 -3.807674e-1 6.303116e-3 3.963995e-2
1.041806e9 2.713281e-2 2.547353e-2 9.003703e-1 -3.807528e-1 -1.064993e-5 1.942563e-4 -8.122958e-5 -1.217629e-4
 9.000210e-1 -3.807139e-1 2.109454e-3 3.264830e-2 -7.962329e-5 -1.202165e-4 1.195223e-4 2.062079e-4
 -1.122575e-5 1.788077e-4 -7.316254e-5 -1.307018e-4 3.182322e-2 3.361073e-2 8.967519e-1 -3.879594e-1
 -7.510732e-5 -1.300613e-4 1.070952e-4 1.681719e-4 8.962629e-1 -3.879887e-1 6.552339e-3 4.080994e-2
1.061639e9 2.792812e-2 2.595673e-2 8.973775e-1 -3.878169e-1 -1.090943e-5 1.993704e-4 -8.395954e-5 -1.227090e-4
 8.970296e-1 -3.877862e-1 2.280266e-3 3.367630e-2 -8.216416e-5 -1.211175e-4 1.285940e-4 2.089106e-4
 -1.282365e-5 1.842932e-4 -7.661215e-5 -1.321006e-4 3.273936e-2 3.421809e-2 8.936688e-1 -3.951641e-1
 -7.862323e-5 -1.313403e-4 1.128738e-4 1.728974e-4 8.931766e-1 -3.951848e-1 6.825339e-3 4.198012e-2
1.081472e9 2.874301e-2 2.642396e-2 8.943240e-1 -3.948530e-1 -1.109176e-5 2.045430e-4 -8.668744e-5 -1.236099e-4
 8.939759e-1 -3.948307e-1 2.469530e-3 3.470169e-2 -8.469617e-5 -1.219812e-4 1.378313e-4 2.111937e-4
 -1.428281e-5 1.899490e-4 -8.008674e-5 -1.333845e-4 3.367928e-2 3.480999e-2 8.905193e-1 -4.023425e-1
 -8.215702e-5 -1.325019e-4 1.190833e-4 1.774679e-4 8.900243e-1 -4.023546e-1 7.121828e-3 4.314977e-2
1.101304e9 2.957679e-2 2.687491e-2 8.912105e-1 -4.018605e-1 -1.119275e-5 2.097701e-4 -8.941209e-5 -1.244679e-4
 8.908605e-1 -4.018469e-1 2.676645e-3 3.572419e-2 -8.721853e-5 -1.228102e-4 1.472093e-4 2.130513e-4
 -1.559038e-5 1.957631e-4 -8.357867e-5 -1.345538e-4 3.464250e-2 3.538581e-2 8.873041e-1 -4.094937e-1
 -8.570119e-5 -1.335475e-4 1.257179e-4 1.818464e-4 8.868064e-1 -4.094974e-1 7.441493e-3 4.431820e-2
1.121137e9 3.042882e-2 2.730928e-2 8.880377e-1 -4.088390e-1 -1.120845e-5 2.150473e-4 -9.213248e-5 -1.252854e-4
 8.876842e-1 -4.088340e-1 2.901032e-3 3.674352e-2 -8.973064e-5 -1.236070e-4 1.567033e-4 2.144792e-4
 -1.673464e-5 2.017228e-4 -8.708034e-5 -1.356095e-4 3.562853e-2 3.594493e-2 8.840236e-1 -4.166168e-1
 -8.924838e-5 -1.344787e-4 1.327683e-4 1.859960e-4 8.835234e-1 -4.166121e-1 7.784005e-3 4.548474e-2
1.140970e9 3.129843e-2 2.772682e-2 8.848064e-1 -4.157881e-1 -1.113521e-5 2.203702e-4 -9.484777e-5 -1.260648e-4
 8.844476e-1 -4.157914e-1 3.142136e-3 3.775950e-2 -9.223212e-5 -1.243745e-4 1.662885e-4 2.154751e-4
 -1.770511e-5 2.078145e-4 -9.058423e-5 -1.365533e-4 3.663685e-2 3.648678e-2 8.806784e-1 -4.237110e-1
 -9.279141e-5 -1.352980e-4 1.402218e-4 1.898812e-4 8.801759e-1 -4.236980e-1 8.149014e-3 4.664879e-2
1.160803e9 3.218499e-2 2.812733e-2 8.815171e-1 -4.227076e-1 -1.096965e-5 2.257339e-4 -9.755735e-5 -1.268085e-4
 8.811515e-1 -4.227188e-1 3.399431e-3 3.877197e-2 -9.472278e-5 -1.251153e-4 1.759407e-4 2.160380e-4
 -1.849257e-5 2.140238e-4 -9.408303e-5 -1.373874e-4 3.766695e-2 3.701081e-2 8.772690e-1 -4.307755e-1
 -9.632337e-5 -1.360082e-4 1.480626e-4 1.934675e-4 8.767643e-1 -4.307543e-1 8.536158e-3 4.780977e-2
1.180635e9 3.308791e-2 2.851064e-2 8.781705e-1 -4.295971e-1 -1.070871e-5 2.311333e-4 -1.002608e-4 -1.275191e-4
 8.777965e-1 -4.296155e-1 3.672420e-3 3.978082e-2 -9.720263e-5 -1.258321e-4 1.856358e-4 2.161685e-4
 -1.908909e-5 2.203361e-4 -9.756961e-5 -1.381148e-4 3.871828e-2 3.751651e-2 8.737960e-1 -4.378095e-1
 -9.983760e-5 -1.366131e-4 1.562719e-4 1.967221e-4 8.732893e-1 -4.377801e-1 8.945066e-3 4.896714e-2
1.200468e9 3.400660e-2 2.887661e-2 8.747671e-1 -4.364563e-1 -1.034965e-5 2.365631e-4 -1.029578e-4 -1.281990e-4
 8.743833e-1 -4.364811e-1 3.960641e-3 4.078601e-2 -9.967190e-5 -1.265275e-4 1.953501e-4 2.158687e-4
 -1.948801e-5 2.267360e-4 -1.010371e-4 -1.387391e-4 3.979030e-2 3.800339e-2 8.702601e-1 -4.448122e-1
 -1.033278e-4 -1.371166e-4 1.648277e-4 1.996140e-4 8.697515e-1 -4.447748e-1 9.375355e-3 5.012039e-2
1.220301e9 3.494049e-2 2.922511e-2 8.713076e-1 -4.432849e-1 -9.890062e-6 2.420179e-4 -1.056484e-4 -1.288507e-4
 8.709127e-1 -4.433153e-1 4.263664e-3 4.178749e-2 -1.021310e-4 -1.272042e-4 2.050608e-4 2.151420e-4
 -1.968401e-5 2.332081e-4 -1.044791e-4 -1.392643e-4 4.088247e-2 3.847100e-2 8.666617e-1 -4.517830e-1
 -1.067882e-4 -1.375232e-4 1.737058e-4 2.021140e-4 8.661513e-1 -4.517377e-1 9.826641e-3 5.126907e-2
1.240134e9 3.588905e-2 2.955608e-2 8.677924e-1 -4.500828e-1 -9.327884e-6 2.474920e-4 -1.083328e-4 -1.294768e-4
 8.673851e-1 -4.501175e-1 4.581098e-3 4.278527e-2 -1.045806e-4 -1.278649e-4 2.147452e-4 2.139934e-4
 -1.967307e-5 2.397366e-4 -1.078894e-4 -1.396952e-4 4.199423e-2 3.891890e-2 8.630016e-1 -4.587212e-1
 -1.102131e-4 -1.378382e-4 1.828793e-4 2.041956e-4 8.624894e-1 -4.586680e-1 1.029853e-2 5.241274e-2
1.259967e9 3.685178e-2 2.986943e-2 8.642219e-1 -4.568496e-1 -8.661409e-6 2.529795e-4 -1.110113e-4 -1.300798e-4
 8.638012e-1 -4.568875e-1 4.912586e-3 4.377938e-2 -1.070214e-4 -1.285119e-4 2.243818e-4 2.124290e-4
 -1.945243e-5 2.463056e-4 -1.112622e-4 -1.400369e-4 4.312503e-2 3.934670e-2 8.592802e-1 -4.656262e-1
 -1.135976e-4 -1.380668e-4 1.923191e-4 2.058344e-4 8.587664e-1 -4.655650e-1 1.079064e-2 5.355101e-2
1.279799e9 3.782820e-2 3.016513e-2 8.605968e-1 -4.635852e-1 -7.889295e-6 2.584746e-4 -1.136844e-4 -1.306620e-4
 8.601615e-1 -4.636249e-1 5.257808e-3 4.476985e-2 -1.094546e-4 -1.291479e-4 2.339495e-4 2.104560e-4
 -1.902066e-5 2.528994e-4 -1.145925e-4 -1.402952e-4 4.427429e-2 3.975402e-2 8.554982e-1 -4.724972e-1
 -1.169373e-4 -1.382151e-4 2.019942e-4 2.070088e-4 8.549829e-1 -4.724282e-1 1.130258e-2 5.468351e-2
1.299632e9 3.881784e-2 3.044313e-2 8.569172e-1 -4.702893e-1 -7.010569e-6 2.639712e-4 -1.163530e-4 -1.312258e-4
 8.564668e-1 -4.703294e-1 5.616482e-3 4.575676e-2 -1.118812e-4 -1.297752e-4 2.434281e-4 2.080830e-4
 -1.837751e-5 2.595022e-4 -1.178755e-4 -1.404761e-4 4.544147e-2 4.014051e-2 8.516562e-1 -4.793338e-1
 -1.202280e-4 -1.382891e-4 2.118720e-4 2.077001e-4 8.511393e-1 -4.792570e-1 1.183396e-2 5.580991e-2
1.319465e9 3.982027e-2 3.070342e-2 8.531837e-1 -4.769617e-1 -6.024633e-6 2.694632e-4 -1.190180e-4 -1.317737e-4
 8.527174e-1 -4.770007e-1 5.988360e-3 4.674019e-2 -1.143027e-4 -1.303961e-4 2.527982e-4 2.053194e-4
 -1.752400e-5 2.660985e-4 -1.211071e-4 -1.405863e-4 4.662600e-2 4.050583e-2 8.477548e-1 -4.861353e-1
 -1.234665e-4 -1.382955e-4 2.219185e-4 2.078923e-4 8.472364e-1 -4.860508e-1 1.238440e-2 5.692990e-2
1.339298e9 4.083510e-2 3.094598e-2 8.493966e-1 -4.836022e-1 -4.931270e-6 2.749444e-4 -1.216804e-4 -1.323077e-4
 8.489139e-1 -4.836385e-1 6.373232e-3 4.772021e-2 -1.167206e-4 -1.310129e-4 2.620416e-4 2.021758e-4
 -1.646226e-5 2.726731e-4 -1.242837e-4 -1.406325e-4 4.782732e-2 4.084970e-2 8.437946e-1 -4.929013e-1
 -1.266498e-4 -1.382411e-4 2.320984e-4 2.075726e-4 8.432747e-1 -4.928089e-1 1.295352e-2 5.804320e-2
1.359130e9 4.186193e-2 3.117080e-2 8.455562e-1 -4.902105e-1 -3.730643e-6 2.804085e-4 -1.243417e-4 -1.328301e-4
 8.450568e-1 -4.902426e-1 6.770919e-3 4.869692e-2 -1.191366e-4 -1.316275e-4 2.711407e-4 1.986636e-4
 -1.519558e-5 2.792112e-4 -1.274024e-4 -1.406220e-4 4.904487e-2 4.117183e-2 8.397761e-1 -4.996311e-1
 -1.297758e-4 -1.381327e-4 2.423758e-4 2.067309e-4 8.392548e-1 -4.995310e-1 1.354097e-2 5.914957e-2
1.378963e9 4.290041e-2 3.137788e-2 8.416627e-1 -4.967864e-1 -2.423296e-6 2.858493e-4 -1.270033e-4 -1.333428e-4
 8.411465e-1 -4.968126e-1 7.181278e-3 4.967041e-2 -1.215527e-4 -1.322419e-4 2.800791e-4 1.947949e-4
 -1.372830e-5 2.856984e-4 -1.304609e-4 -1.405621e-4 5.027810e-2 4.147197e-2 8.356999e-1 -5.063244e-1
 -1.328428e-4 -1.379775e-4 2.527140e-4 2.053606e-4 8.351773e-1 -5.062164e-1 1.414637e-2 6.024878e-2
1.398796e9 4.395020e-2 3.156721e-2 8.377166e-1 -5.033298e-1 -1.010156e-6 2.912607e-4 -1.296669e-4 -1.338479e-4
 8.371835e-1 -5.033484e-1 7.604196e-3 5.064078e-2 -1.239708e-4 -1.328580e-4 2.888414e-4 1.905828e-4
 -1.206577e-5 2.921208e-4 -1.334576e-4 -1.404604e-4 5.152646e-2 4.174987e-2 8.315667e-1 -5.129806e-1
 -1.358499e-4 -1.377828e-4 2.630763e-4 2.034580e-4 8.310427e-1 -5.128648e-1 1.476938e-2 6.134062e-2
1.418629e9 4.501098e-2 3.173880e-2 8.337180e-1 -5.098402e-1 5.074715e-7 2.966364e-4 -1.323342e-4 -1.343472e-4
 8.331683e-1 -5.098496e-1 8.039589e-3 5.160810e-2 -1.263931e-4 -1.334775e-4 2.974131e-4 1.860409e-4
 -1.021428e-5 2.984651e-4 -1.363916e-4 -1.403247e-4 5.278941e-2 4.200533e-2 8.273769e-1 -5.195992e-1
 -1.387967e-4 -1.375558e-4 2.734258e-4 2.010225e-4 8.268516e-1 -5.194755e-1 1.540967e-2 6.242491e-2
1.438462e9 4.608245e-2 3.189264e-2 8.296672e-1 -5.163174e-1 2.127904e-6 3.019703e-4 -1.350073e-4 -1.348423e-4
 8.291012e-1 -5.163161e-1 8.487400e-3 5.257247e-2 -1.288219e-4 -1.341017e-4 3.057809e-4 1.811834e-4
 -8.181020e-6 3.047188e-4 -1.392627e-4 -1.401628e-4 5.406640e-2 4.223814e-2 8.231312e-1 -5.261799e-1
 -1.416835e-4 -1.373038e-4 2.837258e-4 1.980566e-4 8.226046e-1 -5.260482e-1 1.606691e-2 6.350149e-2
1.458294e9 4.716434e-2 3.202871e-2 8.255645e-1 -5.227612e-1 3.849089e-6 3.072563e-4 -1.376882e-4 -1.353347e-4
 8.249827e-1 -5.227475e-1 8.947600e-3 5.353395e-2 -1.312596e-4 -1.347321e-4 3.139325e-4 1.760251e-4
 -5.973975e-6 3.108699e-4 -1.420713e-4 -1.399823e-4 5.535690e-2 4.244812e-2 8.188300e-1 -5.327222e-1
 -1.445112e-4 -1.370340e-4 2.939405e-4 1.945656e-4 8.183022e-1 -5.325825e-1 1.674078e-2 6.457022e-2
1.478127e9 4.825637e-2 3.214701e-2 8.214099e-1 -5.291712e-1 5.668607e-6 3.124885e-4 -1.403793e-4 -1.358258e-4
 8.208130e-1 -5.291437e-1 9.420181e-3 5.449260e-2 -1.337088e-4 -1.353699e-4 3.218569e-4 1.705813e-4
 -3.601884e-6 3.169073e-4 -1.448186e-4 -1.397911e-4 5.666039e-2 4.263512e-2 8.144740e-1 -5.392257e-1
 -1.472814e-4 -1.367535e-4 3.040346e-4 1.905579e-4 8.139449e-1 -5.390779e-1 1.743099e-2 6.563096e-2
1.497960e9 4.935829e-2 3.224752e-2 8.172039e-1 -5.355471e-1 7.583680e-6 3.176610e-4 -1.430828e-4 -1.363169e-4
 8.165926e-1 -5.355044e-1 9.905156e-3 5.544848e-2 -1.361722e-4 -1.360160e-4 3.295438e-4 1.648674e-4
 -1.074155e-6 3.228205e-4 -1.475064e-4 -1.395967e-4 5.797635e-2 4.279898e-2 8.100637e-1 -5.456900e-1
 -1.499963e-4 -1.364693e-4 3.139739e-4 1.860445e-4 8.095334e-1 -5.455340e-1 1.813724e-2 6.668361e-2
1.517793e9 5.046986e-2 3.233019e-2 8.129465e-1 -5.418886e-1 9.591179e-6 3.227682e-4 -1.458013e-4 -1.368090e-4
 8.123217e-1 -5.418294e-1 1.040256e-2 5.640162e-2 -1.386523e-4 -1.366712e-4 3.369845e-4 1.588993e-4
 1.599201e-6 3.286000e-4 -1.501372e-4 -1.394066e-4 5.930426e-2 4.293958e-2 8.055996e-1 -5.521148e-1
 -1.526586e-4 -1.361880e-4 3.237255e-4 1.810393e-4 8.050682e-1 -5.519504e-1 1.885928e-2 6.772806e-2
1.537625e9 5.159085e-2 3.239500e-2 8.086380e-1 -5.481954e-1 1.168763e-5 3.278045e-4 -1.485373e-4 -1.373028e-4
 8.080008e-1 -5.481183e-1 1.091244e-2 5.735203e-2 -1.411521e-4 -1.373362e-4 3.441709e-4 1.526931e-4
 4.407648e-6 3.342370e-4 -1.527143e-4 -1.392281e-4 6.064363e-2 4.305680e-2 8.010822e-1 -5.584996e-1
 -1.552716e-4 -1.359161e-4 3.332578e-4 1.755585e-4 8.005497e-1 -5.583268e-1 1.959682e-2 6.876423e-2
1.557458e9 5.272103e-2 3.244190e-2 8.042786e-1 -5.544669e-1 1.386924e-5 3.327645e-4 -1.512935e-4 -1.377992e-4
 8.036301e-1 -5.543710e-1 1.143486e-2 5.829973e-2 -1.436744e-4 -1.380114e-4 3.510962e-4 1.462650e-4
 7.340192e-6 3.397237e-4 -1.552415e-4 -1.390679e-4 6.199395e-2 4.315053e-2 7.965120e-1 -5.648442e-1
 -1.578393e-4 -1.356597e-4 3.425411e-4 1.696207e-4 7.959785e-1 -5.646628e-1 2.034965e-2 6.979203e-2
1.577291e9 5.386020e-2 3.247084e-2 7.998685e-1 -5.607030e-1 1.613189e-5 3.376432e-4 -1.540727e-4 -1.382985e-4
 7.992100e-1 -5.605872e-1 1.196990e-2 5.924470e-2 -1.462220e-4 -1.386971e-4 3.577548e-4 1.396313e-4
 1.038546e-5 3.450531e-4 -1.577233e-4 -1.389327e-4 6.335474e-2 4.322067e-2 7.918896e-1 -5.711482e-1
 -1.603662e-4 -1.354247e-4 3.515475e-4 1.632467e-4 7.913550e-1 -5.709580e-1 2.111751e-2 7.081141e-2
1.597124e9 5.500815e-2 3.248175e-2 7.954079e-1 -5.669032e-1 1.847113e-5 3.424355e-4 -1.568777e-4 -1.388012e-4
 7.947406e-1 -5.667665e-1 1.251765e-2 6.018692e-2 -1.487980e-4 -1.393931e-4 3.641420e-4 1.328085e-4
 1.353177e-5 3.502190e-4 -1.601646e-4 -1.388288e-4 6.472552e-2 4.326716e-2 7.872153e-1 -5.774112e-1
 -1.628570e-4 -1.352165e-4 3.602510e-4 1.564592e-4 7.866799e-1 -5.772121e-1 2.190020e-2 7.182230e-2
1.616957e9 5.616465e-2 3.247455e-2 7.908970e-1 -5.730670e-1 2.088226e-5 3.471367e-4 -1.597114e-4 -1.393071e-4
 7.902224e-1 -5.729088e-1 1.307818e-2 6.112633e-2 -1.514053e-4 -1.400995e-4 3.702540e-4 1.258127e-4
 1.676718e-5 3.552162e-4 -1.625712e-4 -1.387617e-4 6.610581e-2 4.328993e-2 7.824898e-1 -5.836329e-1
 -1.653173e-4 -1.350400e-4 3.686279e-4 1.492828e-4 7.819536e-1 -5.834248e-1 2.269751e-2 7.282466e-2
1.636789e9 5.732952e-2 3.244916e-2 7.863360e-1 -5.791940e-1 2.336026e-5 3.517424e-4 -1.625767e-4 -1.398163e-4
 7.856555e-1 -5.790138e-1 1.365162e-2 6.206289e-2 -1.540470e-4 -1.408158e-4 3.760884e-4 1.186601e-4
 2.007960e-5 3.600403e-4 -1.649490e-4 -1.387368e-4 6.749516e-2 4.328890e-2 7.777134e-1 -5.898130e-1
 -1.677528e-4 -1.348996e-4 3.766565e-4 1.417436e-4 7.771765e-1 -5.895957e-1 2.350926e-2 7.381842e-2
1.656622e9 5.850255e-2 3.240550e-2 7.817253e-1 -5.852839e-1 2.589986e-5 3.562483e-4 -1.654765e-4 -1.403283e-4
 7.810403e-1 -5.850810e-1 1.423806e-2 6.299650e-2 -1.567260e-4 -1.415413e-4 3.816435e-4 1.113669e-4
 2.345682e-5 3.646879e-4 -1.673048e-4 -1.387587e-4 6.889312e-2 4.326403e-2 7.728866e-1 -5.959513e-1
 -1.701698e-4 -1.347995e-4 3.843177e-4 1.338692e-4 7.723492e-1 -5.957246e-1 2.433526e-2 7.480355e-2
1.676455e9 5.968352e-2 3.234345e-2 7.770650e-1 -5.913361e-1 2.849553e-5 3.606506e-4 -1.684138e-4 -1.408427e-4
 7.763770e-1 -5.911104e-1 1.483760e-2 6.392707e-2 -1.594452e-4 -1.422754e-4 3.869186e-4 1.039487e-4
 2.688658e-5 3.691564e-4 -1.696454e-4 -1.388317e-4 7.029922e-2 4.321529e-2 7.680099e-1 -6.020473e-1
 -1.725748e-4 -1.347430e-4 3.915949e-4 1.256880e-4 7.674721e-1 -6.018111e-1 2.517537e-2 7.578001e-2
1.696288e9 6.087223e-2 3.226292e-2 7.723554e-1 -5.973503e-1 3.114152e-5 3.649456e-4 -1.713915e-4 -1.413587e-4
 7.716660e-1 -5.971014e-1 1.545035e-2 6.485449e-2 -1.622078e-4 -1.430170e-4 3.919139e-4 9.642116e-5
 3.035665e-5 3.734438e-4 -1.719783e-4 -1.389593e-4 7.171304e-2 4.314263e-2 7.630837e-1 -6.081008e-1
 -1.749746e-4 -1.347331e-4 3.984738e-4 1.172298e-4 7.625456e-1 -6.078549e-1 2.602943e-2 7.674777e-2
1.716120e9 6.206847e-2 3.216377e-2 7.675967e-1 -6.033259e-1 3.383185e-5 3.691299e-4 -1.744128e-4 -1.418753e-4
 7.669073e-1 -6.030539e-1 1.607642e-2 6.577864e-2 -1.650165e-4 -1.437650e-4 3.966308e-4 8.879947e-5
 3.385485e-5 3.775492e-4 -1.743112e-4 -1.391443e-4 7.313415e-2 4.304602e-2 7.581085e-1 -6.141115e-1
 -1.773764e-4 -1.347720e-4 4.049428e-4 1.085247e-4 7.575703e-1 -6.138557e-1 2.689731e-2 7.770677e-2
1.735953e9 6.327203e-2 3.204590e-2 7.627894e-1 -6.092625e-1 3.656033e-5 3.732005e-4 -1.774803e-4 -1.423913e-4
 7.621014e-1 -6.089674e-1 1.671591e-2 6.669938e-2 -1.678743e-4 -1.445178e-4 4.010712e-4 8.109849e-5
 3.736917e-5 3.814725e-4 -1.766521e-4 -1.393889e-4 7.456212e-2 4.292546e-2 7.530846e-1 -6.200791e-1
 -1.797874e-4 -1.348615e-4 4.109928e-4 9.960343e-5 7.525465e-1 -6.198132e-1 2.777888e-2 7.865699e-2
1.755786e9 6.448267e-2 3.190917e-2 7.579335e-1 -6.151597e-1 3.932059e-5 3.771547e-4 -1.805972e-4 -1.429053e-4
 7.572485e-1 -6.148417e-1 1.736892e-2 6.761655e-2 -1.707839e-4 -1.452740e-4 4.052379e-4 7.333266e-5
 4.088773e-5 3.852143e-4 -1.790091e-4 -1.396949e-4 7.599655e-2 4.278091e-2 7.480126e-1 -6.260033e-1
 -1.822151e-4 -1.350027e-4 4.166172e-4 9.049697e-5 7.474747e-1 -6.257271e-1 2.867403e-2 7.959838e-2
1.775619e9 6.570017e-2 3.175344e-2 7.530296e-1 -6.210169e-1 4.210610e-5 3.809902e-4 -1.837661e-4 -1.434158e-4
 7.523489e-1 -6.206764e-1 1.803555e-2 6.852998e-2 -1.737481e-4 -1.460317e-4 4.091348e-4 6.551595e-5
 4.439891e-5 3.887758e-4 -1.813907e-4 -1.400629e-4 7.743702e-2 4.261238e-2 7.428928e-1 -6.318838e-1
 -1.846672e-4 -1.351960e-4 4.218121e-4 8.123630e-5 7.423553e-1 -6.315972e-1 2.958266e-2 8.053091e-2
1.795452e9 6.692429e-2 3.157858e-2 7.480778e-1 -6.268337e-1 4.491018e-5 3.847047e-4 -1.869899e-4 -1.439209e-4
 7.474028e-1 -6.264711e-1 1.871587e-2 6.943950e-2 -1.767697e-4 -1.467889e-4 4.127661e-4 5.766186e-5
 4.789136e-5 3.921590e-4 -1.838052e-4 -1.404932e-4 7.888313e-2 4.241986e-2 7.377256e-1 -6.377203e-1
 -1.871511e-4 -1.354413e-4 4.265762e-4 7.185224e-5 7.371887e-1 -6.374231e-1 3.050468e-2 8.145454e-2
1.815284e9 6.815480e-2 3.138445e-2 7.430786e-1 -6.326096e-1 4.772600e-5 3.882968e-4 -1.902713e-4 -1.444185e-4
 7.424105e-1 -6.322256e-1 1.940997e-2 7.034491e-2 -1.798510e-4 -1.475436e-4 4.161371e-4 4.978335e-5
 5.135401e-5 3.953667e-4 -1.862612e-4 -1.409852e-4 8.033449e-2 4.220334e-2 7.325114e-1 -6.435125e-1
 -1.896747e-4 -1.357379e-4 4.309103e-4 6.237521e-5 7.319755e-1 -6.432045e-1 3.144000e-2 8.236921e-2
1.835117e9 6.939142e-2 3.117091e-2 7.380322e-1 -6.383443e-1 5.054664e-5 3.917649e-4 -1.936130e-4 -1.449065e-4
 7.373722e-1 -6.379394e-1 2.011793e-2 7.124602e-2 -1.829946e-4 -1.482933e-4 4.192535e-4 4.189283e-5
 5.477618e-5 3.984020e-4 -1.887671e-4 -1.415376e-4 8.179073e-2 4.196284e-2 7.272506e-1 -6.492602e-1
 -1.922454e-4 -1.360842e-4 4.348178e-4 5.283504e-5 7.267159e-1 -6.489413e-1 3.238857e-2 8.327489e-2
1.854950e9 7.063391e-2 3.093781e-2 7.329392e-1 -6.440371e-1 5.336507e-5 3.951082e-4 -1.970174e-4 -1.453824e-4
 7.322884e-1 -6.436122e-1 2.083981e-2 7.214262e-2 -1.862029e-4 -1.490355e-4 4.221217e-4 3.400210e-5
 5.814754e-5 4.012690e-4 -1.913314e-4 -1.421484e-4 8.325144e-2 4.169835e-2 7.219437e-1 -6.549631e-1
 -1.948709e-4 -1.364784e-4 4.383046e-4 4.326079e-5 7.214103e-1 -6.546330e-1 3.335031e-2 8.417152e-2
1.874783e9 7.188200e-2 3.068500e-2 7.277998e-1 -6.496877e-1 5.617420e-5 3.983259e-4 -2.004869e-4 -1.458437e-4
 7.271591e-1 -6.492436e-1 2.157566e-2 7.303450e-2 -1.894780e-4 -1.497675e-4 4.247489e-4 2.612236e-5
 6.145817e-5 4.039721e-4 -1.939623e-4 -1.428148e-4 8.471627e-2 4.140988e-2 7.165909e-1 -6.606208e-1
 -1.975583e-4 -1.369176e-4 4.413786e-4 3.368057e-5 7.160592e-1 -6.602795e-1 3.432516e-2 8.505903e-2
1.894615e9 7.313539e-2 3.041235e-2 7.226144e-1 -6.552956e-1 5.896687e-5 4.014178e-4 -2.040239e-4 -1.462876e-4
 7.219849e-1 -6.548332e-1 2.232554e-2 7.392142e-2 -1.928220e-4 -1.504866e-4 4.271426e-4 1.826415e-5
 6.469859e-5 4.065161e-4 -1.966679e-4 -1.435335e-4 8.618485e-2 4.109746e-2 7.111928e-1 -6.662330e-1
 -2.003151e-4 -1.373987e-4 4.440496e-4 2.412136e-5 7.106630e-1 -6.658804e-1 3.531309e-2 8.593737e-2
1.914448e9 7.439380e-2 3.011972e-2 7.173835e-1 -6.608604e-1 6.173589e-5 4.043840e-4 -2.076305e-4 -1.467110e-4
 7.167659e-1 -6.603807e-1 2.308948e-2 7.480317e-2 -1.962368e-4 -1.511897e-4 4.293107e-4 1.043735e-5
 6.785978e-5 4.089065e-4 -1.994559e-4 -1.443004e-4 8.765681e-2 4.076109e-2 7.057496e-1 -6.717996e-1
 -2.031480e-4 -1.379179e-4 4.463298e-4 1.460887e-5 7.052221e-1 -6.714354e-1 3.631406e-2 8.680647e-2
1.934281e9 7.565693e-2 2.980696e-2 7.121075e-1 -6.663817e-1 6.447405e-5 4.072249e-4 -2.113086e-4 -1.471108e-4
 7.115025e-1 -6.658856e-1 2.386751e-2 7.567950e-2 -1.997243e-4 -1.518737e-4 4.312619e-4 2.651171e-6
 7.093317e-5 4.111491e-4 -2.023340e-4 -1.451108e-4 8.913180e-2 4.040079e-2 7.002617e-1 -6.773202e-1
 -2.060638e-4 -1.384707e-4 4.482329e-4 5.167407e-6 6.997368e-1 -6.769443e-1 3.732801e-2 8.766625e-2
1.954114e9 7.692448e-2 2.947395e-2 7.067868e-1 -6.718590e-1 6.717413e-5 4.099414e-4 -2.150602e-4 -1.474838e-4
 7.061949e-1 -6.713477e-1 2.465965e-2 7.655020e-2 -2.032859e-4 -1.525352e-4 4.330050e-4 -5.085893e-6
 7.391070e-5 4.132500e-4 -2.053092e-4 -1.459593e-4 9.060947e-2 4.001658e-2 6.947295e-1 -6.827944e-1
 -2.090688e-4 -1.390521e-4 4.497744e-4 -4.180290e-6 6.942075e-1 -6.824068e-1 3.835494e-2 8.851663e-2
1.973946e9 7.819612e-2 2.912056e-2 7.014218e-1 -6.772920e-1 6.982895e-5 4.125345e-4 -2.188869e-4 -1.478265e-4
 7.008436e-1 -6.767664e-1 2.546591e-2 7.741501e-2 -2.069233e-4 -1.531711e-4 4.345493e-4 -1.276606e-5
 7.678478e-5 4.152158e-4 -2.083883e-4 -1.468399e-4 9.208946e-2 3.960848e-2 6.891535e-1 -6.882220e-1
 -2.121691e-4 -1.396568e-4 4.509714e-4 -1.341312e-5 6.886347e-1 -6.878225e-1 3.939480e-2 8.935753e-2
1.993779e9 7.947152e-2 2.874667e-2 6.960131e-1 -6.826802e-1 7.243134e-5 4.150060e-4 -2.227901e-4 -1.481353e-4
 6.954488e-1 -6.821416e-1 2.628629e-2 7.827370e-2 -2.106375e-4 -1.537776e-4 4.359043e-4 -2.038225e-5
 7.954834e-5 4.170533e-4 -2.115775e-4 -1.477462e-4 9.357144e-2 3.917652e-2 6.835338e-1 -6.936028e-1
 -2.153702e-4 -1.402788e-4 4.518422e-4 -2.251173e-5 6.830186e-1 -6.931913e-1 4.044759e-2 9.018884e-2
2.013612e9 8.075036e-2 2.835216e-2 6.905610e-1 -6.880233e-1 7.497421e-5 4.173575e-4 -2.267713e-4 -1.484065e-4
 6.900109e-1 -6.874726e-1 2.712079e-2 7.912602e-2 -2.144298e-4 -1.543513e-4 4.370799e-4 -2.792814e-5
 8.219480e-5 4.187696e-4 -2.148828e-4 -1.486711e-4 9.505506e-2 3.872071e-2 6.778710e-1 -6.989363e-1
 -2.186772e-4 -1.409117e-4 4.524065e-4 -3.145863e-5 6.773597e-1 -6.985128e-1 4.151328e-2 9.101047e-2
2.033445e9 8.203229e-2 2.793693e-2 6.850660e-1 -6.933210e-1 7.745053e-5 4.195915e-4 -2.308315e-4 -1.486361e-4
 6.845302e-1 -6.927593e-1 2.796938e-2 7.997173e-2 -2.183009e-4 -1.548885e-4 4.380861e-4 -3.539813e-5
 8.471810e-5 4.203719e-4 -2.183093e-4 -1.496071e-4 9.654000e-2 3.824108e-2 6.721654e-1 -7.042224e-1
 -2.220950e-4 -1.415486e-4 4.526848e-4 -4.023819e-5 6.716584e-1 -7.037868e-1 4.259185e-2 9.182231e-2
2.053278e9 8.331696e-2 2.750088e-2 6.795285e-1 -6.985727e-1 7.985336e-5 4.217104e-4 -2.349717e-4 -1.488203e-4
 6.790071e-1 -6.980011e-1 2.883205e-2 8.081060e-2 -2.222516e-4 -1.553853e-4 4.389332e-4 -4.278737e-5
 8.711266e-5 4.218677e-4 -2.218618e-4 -1.505463e-4 9.802591e-2 3.773765e-2 6.664173e-1 -7.094606e-1
 -2.256277e-4 -1.421825e-4 4.526986e-4 -4.883678e-5 6.659150e-1 -7.090128e-1 4.368330e-2 9.262423e-2
2.073110e9 8.460402e-2 2.704393e-2 6.739492e-1 -7.037783e-1 8.217586e-5 4.237172e-4 -2.391925e-4 -1.489550e-4
 6.734419e-1 -7.031978e-1 2.970875e-2 8.164238e-2 -2.262823e-4 -1.558379e-4 4.396314e-4 -5.009172e-5
 8.937342e-5 4.232645e-4 -2.255443e-4 -1.514803e-4 9.951246e-2 3.721046e-2 6.606271e-1 -7.146508e-1
 -2.292790e-4 -1.428058e-4 4.524703e-4 -5.724273e-5 6.601298e-1 -7.141908e-1 4.478761e-2 9.341613e-2
2.092943e9 8.589309e-2 2.656598e-2 6.683283e-1 -7.089374e-1 8.441135e-5 4.256153e-4 -2.434945e-4 -1.490361e-4
 6.678351e-1 -7.083489e-1 3.059945e-2 8.246684e-2 -2.303934e-4 -1.562424e-4 4.401913e-4 -5.730782e-5
 9.149580e-5 4.245701e-4 -2.293603e-4 -1.524005e-4 1.009993e-1 3.665952e-2 6.547953e-1 -7.197925e-1
 -2.330520e-4 -1.434107e-4 4.520224e-4 -6.544641e-5 6.543034e-1 -7.193202e-1 4.590478e-2 9.419786e-2
2.112776e9 8.718382e-2 2.606698e-2 6.626664e-1 -7.140496e-1 8.655324e-5 4.274081e-4 -2.478779e-4 -1.490592e-4
 6.621870e-1 -7.134541e-1 3.150411e-2 8.328373e-2 -2.345849e-4 -1.565948e-4 4.406233e-4 -6.443301e-5
 9.347569e-5 4.257922e-4 -2.333126e-4 -1.532980e-4 1.024862e-1 3.608487e-2 6.489220e-1 -7.248854e-1
 -2.369494e-4 -1.439890e-4 4.513780e-4 -7.344019e-5 6.484360e-1 -7.244010e-1 4.703478e-2 9.496930e-2
2.132609e9 8.847584e-2 2.554687e-2 6.569639e-1 -7.191148e-1 8.859512e-5 4.290997e-4 -2.523428e-4 -1.490201e-4
 6.564979e-1 -7.185130e-1 3.242266e-2 8.409282e-2 -2.388567e-4 -1.568913e-4 4.409378e-4 -7.146536e-5
 9.530946e-5 4.269387e-4 -2.374033e-4 -1.541635e-4 1.039728e-1 3.548654e-2 6.430079e-1 -7.299294e-1
 -2.409732e-4 -1.445325e-4 4.505604e-4 -8.121846e-5 6.425280e-1 -7.294327e-1 4.817761e-2 9.573029e-2
2.152441e9 8.976877e-2 2.500560e-2 6.512214e-1 -7.241325e-1 9.053077e-5 4.306942e-4 -2.568890e-4 -1.489144e-4
 6.507684e-1 -7.235253e-1 3.335505e-2 8.489389e-2 -2.432084e-4 -1.571276e-4 4.411454e-4 -7.840367e-5
 9.699392e-5 4.280172e-4 -2.416338e-4 -1.549877e-4 1.054587e-1 3.486455e-2 6.370531e-1 -7.349239e-1
 -2.451247e-4 -1.450327e-4 4.495927e-4 -8.877761e-5 6.365798e-1 -7.344151e-1 4.933325e-2 9.648068e-2
2.172274e9 9.106222e-2 2.444314e-2 6.454392e-1 -7.291025e-1 9.235413e-5 4.321961e-4 -2.615161e-4 -1.487378e-4
 6.449987e-1 -7.284905e-1 3.430121e-2 8.568669e-2 -2.476395e-4 -1.572999e-4 4.412563e-4 -8.524745e-5
 9.852634e-5 4.290356e-4 -2.460049e-4 -1.557611e-4 1.069436e-1 3.421894e-2 6.310581e-1 -7.398688e-1
 -2.494047e-4 -1.454810e-4 4.484981e-4 -9.611599e-5 6.305918e-1 -7.393478e-1 5.050170e-2 9.722032e-2
2.192107e9 9.235583e-2 2.385946e-2 6.396179e-1 -7.340246e-1 9.405934e-5 4.336104e-4 -2.662234e-4 -1.484859e-4
 6.391892e-1 -7.334084e-1 3.526107e-2 8.647102e-2 -2.521492e-4 -1.574041e-4 4.412807e-4 -9.199689e-5
 9.990438e-5 4.300015e-4 -2.505166e-4 -1.564743e-4 1.084272e-1 3.354973e-2 6.250233e-1 -7.447637e-1
 -2.538136e-4 -1.458688e-4 4.472994e-4 -1.032339e-4 6.245644e-1 -7.442306e-1 5.168293e-2 9.794903e-2
2.211940e9 9.364921e-2 2.325455e-2 6.337578e-1 -7.388984e-1 9.564077e-5 4.349422e-4 -2.710100e-4 -1.481542e-4
 6.333405e-1 -7.382786e-1 3.623456e-2 8.724663e-2 -2.567364e-4 -1.574361e-4 4.412288e-4 -9.865286e-5
 1.011261e-4 4.309228e-4 -2.551682e-4 -1.571176e-4 1.099093e-1 3.285697e-2 6.189490e-1 -7.496083e-1
 -2.583509e-4 -1.461873e-4 4.460189e-4 -1.101333e-4 6.184979e-1 -7.490632e-1 5.287693e-2 9.866666e-2
2.231773e9 9.494197e-2 2.262842e-2 6.278595e-1 -7.437238e-1 9.709301e-5 4.361967e-4 -2.758747e-4 -1.477382e-4
 6.274528e-1 -7.431008e-1 3.722160e-2 8.801332e-2 -2.614000e-4 -1.573921e-4 4.411104e-4 -1.052169e-4
 1.021900e-4 4.318068e-4 -2.599583e-4 -1.576816e-4 1.113894e-1 3.214067e-2 6.128356e-1 -7.544023e-1
 -2.630155e-4 -1.464278e-4 4.446784e-4 -1.168183e-4 6.123927e-1 -7.538453e-1 5.408367e-2 9.937301e-2
2.251605e9 9.623374e-2 2.198107e-2 6.219234e-1 -7.485005e-1 9.841089e-5 4.373797e-4 -2.808163e-4 -1.472337e-4
 6.215267e-1 -7.478746e-1 3.822211e-2 8.877086e-2 -2.661385e-4 -1.572679e-4 4.409351e-4 -1.116912e-4
 1.030948e-4 4.326612e-4 -2.648849e-4 -1.581568e-4 1.128672e-1 3.140089e-2 6.066835e-1 -7.591453e-1
 -2.678059e-4 -1.465817e-4 4.432988e-4 -1.232945e-4 6.062493e-1 -7.585764e-1 5.530314e-2 1.000679e-1
2.271438e9 9.752415e-2 2.131252e-2 6.159498e-1 -7.532282e-1 9.958949e-5 4.384970e-4 -2.858331e-4 -1.466361e-4
 6.155625e-1 -7.525997e-1 3.923599e-2 8.951905e-2 -2.709503e-4 -1.570598e-4 4.407123e-4 -1.180786e-4
 1.038398e-4 4.334931e-4 -2.699451e-4 -1.585341e-4 1.143426e-1 3.063765e-2 6.004932e-1 -7.638371e-1
 -2.727198e-4 -1.466405e-4 4.419004e-4 -1.295689e-4 6.000679e-1 -7.632565e-1 5.653529e-2 1.007512e-1
2.291271e9 9.881280e-2 2.062282e-2 6.099394e-1 -7.579068e-1 1.006241e-4 4.395547e-4 -2.909231e-4 -1.459412e-4
 6.095607e-1 -7.572758e-1 4.026316e-2 9.025767e-2 -2.758336e-4 -1.567638e-4 4.404511e-4 -1.243825e-4
 1.044243e-4 4.343099e-4 -2.751355e-4 -1.588044e-4 1.158150e-1 2.985099e-2 5.942650e-1 -7.684772e-1
 -2.777545e-4 -1.465956e-4 4.405024e-4 -1.356505e-4 5.938491e-1 -7.678851e-1 5.778011e-2 1.014226e-1
2.311104e9 1.000993e-1 1.991200e-2 6.038924e-1 -7.625360e-1 1.015105e-4 4.405592e-4 -2.960844e-4 -1.451446e-4
 6.035217e-1 -7.619025e-1 4.130353e-2 9.098651e-2 -2.807862e-4 -1.563762e-4 4.401601e-4 -1.306069e-4
 1.048482e-4 4.351185e-4 -2.804521e-4 -1.589589e-4 1.172843e-1 2.904095e-2 5.879993e-1 -7.730655e-1
 -2.829066e-4 -1.464389e-4 4.391229e-4 -1.415493e-4 5.875931e-1 -7.724619e-1 5.903754e-2 1.020820e-1
2.330936e9 1.013834e-1 1.918013e-2 5.978093e-1 -7.671156e-1 1.022443e-4 4.415171e-4 -3.013146e-4 -1.442422e-4
 5.974458e-1 -7.664796e-1 4.235701e-2 9.170537e-2 -2.858060e-4 -1.558933e-4 4.398478e-4 -1.367564e-4
 1.051115e-4 4.359258e-4 -2.858901e-4 -1.589893e-4 1.187500e-1 2.820757e-2 5.816964e-1 -7.776015e-1
 -2.881721e-4 -1.461623e-4 4.377790e-4 -1.472768e-4 5.813005e-1 -7.769867e-1 6.030756e-2 1.027291e-1
2.350769e9 1.026645e-1 1.842727e-2 5.916906e-1 -7.716454e-1 1.028220e-4 4.424350e-4 -3.066111e-4 -1.432298e-4
 5.913337e-1 -7.710067e-1 4.342350e-2 9.241406e-2 -2.908903e-4 -1.553115e-4 4.395221e-4 -1.428360e-4
 1.052144e-4 4.367386e-4 -2.914442e-4 -1.588873e-4 1.202120e-1 2.735089e-2 5.753570e-1 -7.820849e-1
 -2.935466e-4 -1.457581e-4 4.364864e-4 -1.528458e-4 5.749715e-1 -7.814591e-1 6.159011e-2 1.033638e-1
2.370602e9 1.039425e-1 1.765350e-2 5.855365e-1 -7.761251e-1 1.032399e-4 4.433198e-4 -3.119710e-4 -1.421033e-4
 5.851857e-1 -7.754836e-1 4.450290e-2 9.311236e-2 -2.960367e-4 -1.546273e-4 4.391906e-4 -1.488513e-4
 1.051575e-4 4.375633e-4 -2.971086e-4 -1.586452e-4 1.216698e-1 2.647096e-2 5.689812e-1 -7.865155e-1
 -2.990251e-4 -1.452188e-4 4.352596e-4 -1.582699e-4 5.686067e-1 -7.858788e-1 6.288513e-2 1.039858e-1
2.390435e9 1.052168e-1 1.685891e-2 5.793476e-1 -7.805547e-1 1.034948e-4 4.441786e-4 -3.173914e-4 -1.408589e-4
 5.790022e-1 -7.799099e-1 4.559512e-2 9.380007e-2 -3.012422e-4 -1.538373e-4 4.388604e-4 -1.548086e-4
 1.049416e-4 4.384064e-4 -3.028769e-4 -1.582559e-4 1.231231e-1 2.556782e-2 5.625697e-1 -7.908929e-1
 -3.046021e-4 -1.445373e-4 4.341117e-4 -1.635638e-4 5.622064e-1 -7.902455e-1 6.419258e-2 1.045949e-1
2.410268e9 1.064873e-1 1.604359e-2 5.731241e-1 -7.849338e-1 1.035838e-4 4.450187e-4 -3.228690e-4 -1.394926e-4
 5.727836e-1 -7.842854e-1 4.670004e-2 9.447701e-2 -3.065037e-4 -1.529383e-4 4.385382e-4 -1.607141e-4
 1.045675e-4 4.392739e-4 -3.087422e-4 -1.577125e-4 1.245717e-1 2.464152e-2 5.561227e-1 -7.952167e-1
 -3.102716e-4 -1.437067e-4 4.330544e-4 -1.687431e-4 5.557711e-1 -7.945589e-1 6.551238e-2 1.051910e-1
2.430100e9 1.077534e-1 1.520765e-2 5.668665e-1 -7.892622e-1 1.035044e-4 4.458473e-4 -3.284003e-4 -1.380009e-4
 5.665306e-1 -7.886098e-1 4.781759e-2 9.514298e-2 -3.118182e-4 -1.519271e-4 4.382302e-4 -1.665751e-4
 1.040363e-4 4.401720e-4 -3.146971e-4 -1.570087e-4 1.260152e-1 2.369212e-2 5.496407e-1 -7.994867e-1
 -3.160274e-4 -1.427208e-4 4.320980e-4 -1.738240e-4 5.493011e-1 -7.988188e-1 6.684447e-2 1.057737e-1
2.449933e9 1.090150e-1 1.435119e-2 5.605752e-1 -7.935398e-1 1.032542e-4 4.466720e-4 -3.339817e-4 -1.363802e-4
 5.602433e-1 -7.928828e-1 4.894764e-2 9.579778e-2 -3.171821e-4 -1.508007e-4 4.379419e-4 -1.723987e-4
 1.033493e-4 4.411064e-4 -3.207339e-4 -1.561387e-4 1.274532e-1 2.271965e-2 5.431242e-1 -8.037026e-1
 -3.218625e-4 -1.415735e-4 4.312512e-4 -1.788232e-4 5.427970e-1 -8.030247e-1 6.818876e-2 1.063428e-1
2.469766e9 1.102715e-1 1.347434e-2 5.542505e-1 -7.977663e-1 1.028314e-4 4.475002e-4 -3.396092e-4 -1.346271e-4
 5.539224e-1 -7.971042e-1 5.009009e-2 9.644123e-2 -3.225920e-4 -1.495564e-4 4.376786e-4 -1.781927e-4
 1.025078e-4 4.420827e-4 -3.268446e-4 -1.550975e-4 1.288855e-1 2.172419e-2 5.365736e-1 -8.078640e-1
 -3.277698e-4 -1.402592e-4 4.305214e-4 -1.837580e-4 5.362590e-1 -8.071765e-1 6.954517e-2 1.068981e-1
2.489599e9 1.115229e-1 1.257723e-2 5.478928e-1 -8.019416e-1 1.022344e-4 4.483397e-4 -3.452789e-4 -1.327384e-4
 5.475683e-1 -8.012737e-1 5.124485e-2 9.707312e-2 -3.280441e-4 -1.481915e-4 4.374448e-4 -1.839652e-4
 1.015134e-4 4.431065e-4 -3.330206e-4 -1.538804e-4 1.303118e-1 2.070579e-2 5.299894e-1 -8.119707e-1
 -3.337419e-4 -1.387730e-4 4.299144e-4 -1.886459e-4 5.296878e-1 -8.112737e-1 7.091362e-2 1.074395e-1
2.509431e9 1.127686e-1 1.165999e-2 5.415024e-1 -8.060653e-1 1.014618e-4 4.491980e-4 -3.509864e-4 -1.307110e-4
 5.411814e-1 -8.053909e-1 5.241180e-2 9.769326e-2 -3.335346e-4 -1.467035e-4 4.372447e-4 -1.897245e-4
 1.003675e-4 4.441831e-4 -3.392534e-4 -1.524834e-4 1.317317e-1 1.966452e-2 5.233720e-1 -8.160223e-1
 -3.397709e-4 -1.371102e-4 4.294344e-4 -1.935048e-4 5.230837e-1 -8.153162e-1 7.229400e-2 1.079665e-1
2.529264e9 1.140084e-1 1.072275e-2 5.350797e-1 -8.101373e-1 1.005128e-4 4.500831e-4 -3.567272e-4 -1.285422e-4
 5.347621e-1 -8.094558e-1 5.359084e-2 9.830148e-2 -3.390595e-4 -1.450901e-4 4.370816e-4 -1.954792e-4
 9.907195e-5 4.453175e-4 -3.455340e-4 -1.509031e-4 1.331448e-1 1.860043e-2 5.167218e-1 -8.200185e-1
 -3.458486e-4 -1.352668e-4 4.290844e-4 -1.983524e-4 5.164471e-1 -8.193035e-1 7.368622e-2 1.084791e-1
2.549097e9 1.152421e-1 9.765662e-3 5.286252e-1 -8.141573e-1 9.938671e-5 4.510026e-4 -3.624969e-4 -1.262293e-4
 5.283110e-1 -8.134679e-1 5.478185e-2 9.889756e-2 -3.446147e-4 -1.433492e-4 4.369585e-4 -2.012382e-4
 9.762839e-5 4.465148e-4 -3.518532e-4 -1.491369e-4 1.345510e-1 1.751360e-2 5.100393e-1 -8.239590e-1
 -3.519668e-4 -1.332392e-4 4.288658e-4 -2.032066e-4 5.097785e-1 -8.232355e-1 7.509015e-2 1.089770e-1
2.568930e9 1.164692e-1 8.788866e-3 5.221390e-1 -8.181251e-1 9.808333e-5 4.519643e-4 -3.682906e-4 -1.237698e-4
 5.218284e-1 -8.174272e-1 5.598472e-2 9.948133e-2 -3.501959e-4 -1.414789e-4 4.368776e-4 -2.070106e-4
 9.603867e-5 4.477800e-4 -3.582020e-4 -1.471826e-4 1.359498e-1 1.640410e-2 5.033251e-1 -8.278435e-1
 -3.581170e-4 -1.310244e-4 4.287785e-4 -2.080851e-4 5.030785e-1 -8.271118e-1 7.650569e-2 1.094599e-1
2.588763e9 1.176896e-1 7.792513e-3 5.156216e-1 -8.220405e-1 9.660270e-5 4.529761e-4 -3.741034e-4 -1.211616e-4
 5.153148e-1 -8.213332e-1 5.719935e-2 1.000526e-1 -3.557989e-4 -1.394775e-4 4.368408e-4 -2.128056e-4
 9.430464e-5 4.491176e-4 -3.645711e-4 -1.450388e-4 1.373409e-1 1.527201e-2 4.965795e-1 -8.316718e-1
 -3.642904e-4 -1.286199e-4 4.288212e-4 -2.130053e-4 4.963474e-1 -8.309322e-1 7.793271e-2 1.099276e-1
2.608595e9 1.189030e-1 6.776756e-3 5.090734e-1 -8.259032e-1 9.494523e-5 4.540458e-4 -3.799303e-4 -1.184027e-4
 5.087707e-1 -8.251859e-1 5.842561e-2 1.006112e-1 -3.614192e-4 -1.373434e-4 4.368490e-4 -2.186325e-4
 9.242821e-5 4.505323e-4 -3.709511e-4 -1.427047e-4 1.387239e-1 1.411740e-2 4.898031e-1 -8.354435e-1
 -3.704783e-4 -1.260238e-4 4.289912e-4 -2.179843e-4 4.895857e-1 -8.346963e-1 7.937107e-2 1.103798e-1
2.628428e9 1.201090e-1 5.741749e-3 5.024947e-1 -8.297129e-1 9.311166e-5 4.551811e-4 -3.857661e-4 -1.154913e-4
 5.021964e-1 -8.289850e-1 5.966338e-2 1.011568e-1 -3.670522e-4 -1.350754e-4 4.369027e-4 -2.245009e-4
 9.041131e-5 4.520286e-4 -3.773329e-4 -1.401801e-4 1.400986e-1 1.294037e-2 4.829964e-1 -8.391583e-1
 -3.766717e-4 -1.232346e-4 4.292846e-4 -2.230389e-4 4.827938e-1 -8.384039e-1 8.082064e-2 1.108164e-1
2.648261e9 1.213075e-1 4.687648e-3 4.958858e-1 -8.334695e-1 9.110305e-5 4.563898e-4 -3.916056e-4 -1.124259e-4
 4.955925e-1 -8.327301e-1 6.091256e-2 1.016894e-1 -3.726934e-4 -1.326723e-4 4.370019e-4 -2.304202e-4
 8.825591e-5 4.536109e-4 -3.837071e-4 -1.374654e-4 1.414647e-1 1.174101e-2 4.761598e-1 -8.428161e-1
 -3.828617e-4 -1.202515e-4 4.296962e-4 -2.281852e-4 4.759724e-1 -8.420547e-1 8.228127e-2 1.112371e-1
2.668094e9 1.224981e-1 3.614609e-3 4.892471e-1 -8.371725e-1 8.892079e-5 4.576795e-4 -3.974433e-4 -1.092052e-4
 4.889594e-1 -8.364212e-1 6.217300e-2 1.022087e-1 -3.783381e-4 -1.301335e-4 4.371459e-4 -2.364002e-4
 8.596401e-5 4.552835e-4 -3.900648e-4 -1.345618e-4 1.428217e-1 1.051940e-2 4.692938e-1 -8.464164e-1
 -3.890393e-4 -1.170742e-4 4.302197e-4 -2.334387e-4 4.691218e-1 -8.456484e-1 8.375282e-2 1.116417e-1
2.687926e9 1.236806e-1 2.522790e-3 4.825791e-1 -8.408219e-1 8.656659e-5 4.590578e-4 -4.032739e-4 -1.058284e-4
 4.822976e-1 -8.400580e-1 6.344459e-2 1.027145e-1 -3.839815e-4 -1.274581e-4 4.373331e-4 -2.424503e-4
 8.353764e-5 4.570507e-4 -3.963970e-4 -1.314709e-4 1.441694e-1 9.275650e-3 4.623989e-1 -8.499590e-1
 -3.951955e-4 -1.137029e-4 4.308478e-4 -2.388145e-4 4.622426e-1 -8.491848e-1 8.523512e-2 1.120299e-1
2.707759e9 1.248548e-1 1.412347e-3 4.758820e-1 -8.444172e-1 8.404248e-5 4.605321e-4 -4.090918e-4 -1.022946e-4
 4.756074e-1 -8.436402e-1 6.472720e-2 1.032067e-1 -3.896189e-4 -1.246459e-4 4.375618e-4 -2.485802e-4
 8.097884e-5 4.589165e-4 -4.026951e-4 -1.281949e-4 1.455074e-1 8.009860e-3 4.554757e-1 -8.534437e-1
 -4.013215e-4 -1.101386e-4 4.315721e-4 -2.443268e-4 4.553352e-1 -8.526636e-1 8.672800e-2 1.124014e-1
2.727592e9 1.260205e-1 2.834355e-4 4.691562e-1 -8.479582e-1 8.135079e-5 4.621100e-4 -4.148914e-4 -9.860332e-5
 4.688894e-1 -8.471677e-1 6.602068e-2 1.036850e-1 -3.952456e-4 -1.216966e-4 4.378293e-4 -2.547993e-4
 7.828967e-5 4.608851e-4 -4.089505e-4 -1.247366e-4 1.468355e-1 6.722140e-3 4.485246e-1 -8.568702e-1
 -4.074085e-4 -1.063824e-4 4.323835e-4 -2.499889e-4 4.484001e-1 -8.560846e-1 8.823130e-2 1.127562e-1
2.747425e9 1.271774e-1 -8.637889e-4 4.624022e-1 -8.514446e-1 7.849416e-5 4.637986e-4 -4.206671e-4 -9.475442e-5
 4.621440e-1 -8.506402e-1 6.732491e-2 1.041493e-1 -4.008566e-4 -1.186104e-4 4.381324e-4 -2.611172e-4
 7.547222e-5 4.629606e-4 -4.151552e-4 -1.210994e-4 1.481531e-1 5.412603e-3 4.415462e-1 -8.602383e-1
 -4.134478e-4 -1.024362e-4 4.332717e-4 -2.558135e-4 4.414379e-1 -8.594474e-1 8.974483e-2 1.130938e-1
2.767258e9 1.283253e-1 -2.029173e-3 4.556203e-1 -8.548762e-1 7.547552e-5 4.656051e-4 -4.264133e-4 -9.074796e-5
 4.553716e-1 -8.540576e-1 6.863975e-2 1.045993e-1 -4.064473e-4 -1.153876e-4 4.384674e-4 -2.675431e-4
 7.252862e-5 4.651469e-4 -4.213012e-4 -1.172871e-4 1.494601e-1 4.081370e-3 4.345410e-1 -8.635476e-1
 -4.194308e-4 -9.830239e-5 4.342260e-4 -2.618124e-4 4.344490e-1 -8.627519e-1 9.126841e-2 1.134142e-1
2.787090e9 1.294640e-1 -3.212566e-3 4.488109e-1 -8.582526e-1 7.229810e-5 4.675366e-4 -4.321242e-4 -8.658426e-5
 4.485727e-1 -8.574195e-1 6.996504e-2 1.050348e-1 -4.120127e-4 -1.120287e-4 4.388298e-4 -2.740862e-4
 6.946101e-5 4.674480e-4 -4.273811e-4 -1.133040e-4 1.507561e-1 2.728564e-3 4.275095e-1 -8.667980e-1
 -4.253493e-4 -9.398377e-5 4.352348e-4 -2.679964e-4 4.274340e-1 -8.659978e-1 9.280185e-2 1.137171e-1
2.806923e9 1.305932e-1 -4.413818e-3 4.419744e-1 -8.615735e-1 6.896541e-5 4.695997e-4 -4.377942e-4 -8.226397e-5
 4.417478e-1 -8.607258e-1 7.130064e-2 1.054558e-1 -4.175481e-4 -1.085344e-4 4.392148e-4 -2.807555e-4
 6.627156e-5 4.698679e-4 -4.333878e-4 -1.091548e-4 1.520408e-1 1.354317e-3 4.204523e-1 -8.699893e-1
 -4.311952e-4 -8.948367e-5 4.362861e-4 -2.743756e-4 4.203933e-1 -8.691849e-1 9.434496e-2 1.140022e-1
2.826756e9 1.317128e-1 -5.632783e-3 4.351114e-1 -8.648386e-1 6.548120e-5 4.718012e-4 -4.434176e-4 -7.778797e-5
 4.348973e-1 -8.639763e-1 7.264639e-2 1.058619e-1 -4.230488e-4 -1.049059e-4 4.396168e-4 -2.875598e-4
 6.296251e-5 4.724105e-4 -4.393145e-4 -1.048446e-4 1.533138e-1 -4.123516e-5 4.133698e-1 -8.731211e-1
 -4.369606e-4 -8.480584e-5 4.373671e-4 -2.809590e-4 4.133276e-1 -8.723129e-1 9.589752e-2 1.142694e-1
2.846589e9 1.328225e-1 -6.869316e-3 4.282221e-1 -8.680477e-1 6.184953e-5 4.741476e-4 -4.489889e-4 -7.315743e-5
 4.280216e-1 -8.671708e-1 7.400214e-2 1.062530e-1 -4.285099e-4 -1.011444e-4 4.400296e-4 -2.945076e-4
 5.953612e-5 4.750797e-4 -4.451551e-4 -1.003790e-4 1.545747e-1 -1.457951e-3 4.062626e-1 -8.761932e-1
 -4.426378e-4 -7.995451e-5 4.384650e-4 -2.877547e-4 4.062373e-1 -8.753816e-1 9.745934e-2 1.145184e-1
2.866421e9 1.339222e-1 -8.123276e-3 4.213071e-1 -8.712004e-1 5.807468e-5 4.766452e-4 -4.545023e-4 -6.837382e-5
 4.211213e-1 -8.703090e-1 7.536772e-2 1.066289e-1 -4.339270e-4 -9.725141e-5 4.404468e-4 -3.016072e-4
 5.599471e-5 4.778795e-4 -4.509036e-4 -9.576387e-5 1.558234e-1 -2.895682e-3 3.991312e-1 -8.792056e-1
 -4.482197e-4 -7.493430e-5 4.395663e-4 -2.947699e-4 3.991230e-1 -8.783908e-1 9.903019e-2 1.147490e-1
2.886254e9 1.350117e-1 -9.394523e-3 4.143668e-1 -8.742965e-1 5.416117e-5 4.793000e-4 -4.599525e-4 -6.343885e-5
 4.141967e-1 -8.733909e-1 7.674297e-2 1.069894e-1 -4.392953e-4 -9.322861e-5 4.408610e-4 -3.088666e-4
 5.234067e-5 4.808137e-4 -4.565549e-4 -9.100523e-5 1.570593e-1 -4.354275e-3 3.919763e-1 -8.821578e-1
 -4.536993e-4 -6.975022e-5 4.406572e-4 -3.020108e-4 3.919851e-1 -8.813403e-1 1.006099e-1 1.149611e-1
2.906087e9 1.360907e-1 -1.068292e-2 4.074016e-1 -8.773356e-1 5.011376e-5 4.821179e-4 -4.653339e-4 -5.835452e-5
 4.072484e-1 -8.764161e-1 7.812771e-2 1.073343e-1 -4.446103e-4 -8.907799e-5 4.412646e-4 -3.162935e-4
 4.857645e-5 4.838863e-4 -4.621039e-4 -8.610949e-5 1.582823e-1 -5.833570e-3 3.847982e-1 -8.850498e-1
 -4.590699e-4 -6.440765e-5 4.417240e-4 -3.094829e-4 3.848243e-1 -8.842299e-1 1.021981e-1 1.151544e-1
2.925920e9 1.371590e-1 -1.198834e-2 4.004122e-1 -8.803175e-1 4.593743e-5 4.851046e-4 -4.706411e-4 -5.312311e-5
 4.002768e-1 -8.793844e-1 7.952177e-2 1.076635e-1 -4.498677e-4 -8.480174e-5 4.416494e-4 -3.238951e-4
 4.470459e-5 4.871011e-4 -4.675464e-4 -8.108325e-5 1.594919e-1 -7.333400e-3 3.775977e-1 -8.878814e-1
 -4.643252e-4 -5.891233e-5 4.427527e-4 -3.171906e-4 3.776410e-1 -8.870594e-1 1.037947e-1 1.153287e-1
2.945753e9 1.382165e-1 -1.331065e-2 3.933988e-1 -8.832418e-1 4.163737e-5 4.882654e-4 -4.758689e-4 -4.774715e-5
 3.932824e-1 -8.822958e-1 8.092495e-2 1.079767e-1 -4.550631e-4 -8.040227e-5 4.420067e-4 -3.316786e-4
 4.072772e-5 4.904621e-4 -4.728785e-4 -7.593327e-5 1.606878e-1 -8.853595e-3 3.703752e-1 -8.906522e-1
 -4.694595e-4 -5.327031e-5 4.437291e-4 -3.251375e-4 3.704359e-1 -8.898285e-1 1.053995e-1 1.154838e-1
2.965585e9 1.392629e-1 -1.464972e-2 3.863622e-1 -8.861083e-1 3.721894e-5 4.916055e-4 -4.810122e-4 -4.222942e-5
 3.862656e-1 -8.851500e-1 8.233709e-2 1.082738e-1 -4.601924e-4 -7.588221e-5 4.423274e-4 -3.396503e-4
 3.664854e-5 4.939732e-4 -4.780968e-4 -7.066643e-5 1.618698e-1 -1.039397e-2 3.631312e-1 -8.933623e-1
 -4.744671e-4 -4.748792e-5 4.446391e-4 -3.333263e-4 3.632094e-1 -8.925372e-1 1.070121e-1 1.156195e-1
2.985418e9 1.402981e-1 -1.600542e-2 3.793027e-1 -8.889167e-1 3.268771e-5 4.951299e-4 -4.860659e-4 -3.657299e-5
 3.792269e-1 -8.879467e-1 8.375798e-2 1.085546e-1 -4.652513e-4 -7.124440e-5 4.426017e-4 -3.478166e-4
 3.246989e-5 4.976383e-4 -4.831986e-4 -6.528971e-5 1.630374e-1 -1.195435e-2 3.558664e-1 -8.960113e-1
 -4.793431e-4 -4.157176e-5 4.454686e-4 -3.417589e-4 3.559621e-1 -8.951851e-1 1.086324e-1 1.157357e-1
3.005251e9 1.413218e-1 -1.737764e-2 3.722209e-1 -8.916668e-1 2.804941e-5 4.988431e-4 -4.910251e-4 -3.078116e-5
 3.721669e-1 -8.906859e-1 8.518744e-2 1.088189e-1 -4.702360e-4 -6.649189e-5 4.428198e-4 -3.561831e-4
 2.819472e-5 5.014613e-4 -4.881814e-4 -5.981017e-5 1.641904e-1 -1.353455e-2 3.485812e-1 -8.985992e-1
 -4.840828e-4 -3.552867e-5 4.462038e-4 -3.504366e-4 3.486946e-1 -8.977723e-1 1.102601e-1 1.158322e-1
3.025084e9 1.423339e-1 -1.876625e-2 3.651174e-1 -8.943582e-1 2.330992e-5 5.027496e-4 -4.958851e-4 -2.485746e-5
 3.650859e-1 -8.933672e-1 8.662526e-2 1.090666e-1 -4.751428e-4 -6.162793e-5 4.429710e-4 -3.647550e-4
 2.382608e-5 5.054460e-4 -4.930435e-4 -5.423484e-5 1.653285e-1 -1.513435e-2 3.412763e-1 -9.011257e-1
 -4.886819e-4 -2.936570e-5 4.468307e-4 -3.593596e-4 3.414073e-1 -9.002984e-1 1.118949e-1 1.159088e-1
3.044916e9 1.433342e-1 -2.017113e-2 3.579927e-1 -8.969907e-1 1.847526e-5 5.068535e-4 -5.006414e-4 -1.880568e-5
 3.579845e-1 -8.959907e-1 8.807125e-2 1.092974e-1 -4.799679e-4 -5.665597e-5 4.430447e-4 -3.735373e-4
 1.936719e-5 5.095964e-4 -4.977834e-4 -4.857076e-5 1.664512e-1 -1.675356e-2 3.339523e-1 -9.035908e-1
 -4.931367e-4 -2.309007e-5 4.473357e-4 -3.685276e-4 3.341009e-1 -9.027633e-1 1.135366e-1 1.159653e-1
3.064749e9 1.443223e-1 -2.159215e-2 3.508473e-1 -8.995642e-1 1.355158e-5 5.111586e-4 -5.052895e-4 -1.262983e-5
 3.508631e-1 -8.985560e-1 8.952519e-2 1.095113e-1 -4.847079e-4 -5.157965e-5 4.430295e-4 -3.825341e-4
 1.482139e-5 5.139162e-4 -5.024003e-4 -4.282491e-5 1.675584e-1 -1.839197e-2 3.266095e-1 -9.059942e-1
 -4.974438e-4 -1.670917e-5 4.477053e-4 -3.779398e-4 3.267760e-1 -9.051670e-1 1.151850e-1 1.160015e-1
3.084582e9 1.452982e-1 -2.302922e-2 3.436819e-1 -9.020782e-1 8.545155e-6 5.156686e-4 -5.098253e-4 -6.334131e-6
 3.437222e-1 -9.010629e-1 9.098688e-2 1.097081e-1 -4.893595e-4 -4.640277e-5 4.429140e-4 -3.917492e-4
 1.019217e-5 5.184093e-4 -5.068938e-4 -3.700417e-5 1.686496e-1 -2.004937e-2 3.192487e-1 -9.083358e-1
 -5.016004e-4 -1.023049e-5 4.479264e-4 -3.875946e-4 3.194330e-1 -9.075092e-1 1.168397e-1 1.160173e-1
3.104415e9 1.462617e-1 -2.448219e-2 3.364970e-1 -9.045328e-1 3.462346e-6 5.203866e-4 -5.142448e-4 7.697619e-8
 3.365625e-1 -9.035115e-1 9.245611e-2 1.098876e-1 -4.939196e-4 -4.112934e-5 4.426862e-4 -4.011860e-4
 5.483177e-6 5.230794e-4 -5.112640e-4 -3.111532e-5 1.697246e-1 -2.172552e-2 3.118704e-1 -9.106156e-1
 -5.056040e-4 -3.661625e-6 4.479858e-4 -3.974897e-4 3.120725e-1 -9.097897e-1 1.185005e-1 1.160125e-1
3.124247e9 1.472124e-1 -2.595096e-2 3.292931e-1 -9.069275e-1 -1.690392e-6 5.253156e-4 -5.185442e-4 6.598858e-6
 3.293842e-1 -9.059013e-1 9.393265e-2 1.100497e-1 -4.983854e-4 -3.576348e-5 4.423340e-4 -4.108471e-4
 6.982263e-7 5.279303e-4 -5.155111e-4 -2.516498e-5 1.707831e-1 -2.342021e-2 3.044751e-1 -9.128333e-1
 -5.094526e-4 2.989759e-6 4.478711e-4 -4.076225e-4 3.046951e-1 -9.120086e-1 1.201672e-1 1.159871e-1
3.144080e9 1.481502e-1 -2.743541e-2 3.220710e-1 -9.092623e-1 -6.906537e-6 5.304585e-4 -5.227200e-4 1.322669e-5
 3.221880e-1 -9.082324e-1 9.541631e-2 1.101942e-1 -5.027540e-4 -3.030952e-5 4.418449e-4 -4.207347e-4
 -4.158703e-6 5.329655e-4 -5.196363e-4 -1.915959e-5 1.718248e-1 -2.513320e-2 2.970635e-1 -9.149888e-1
 -5.131447e-4 9.715961e-6 4.475697e-4 -4.179899e-4 2.973014e-1 -9.141656e-1 1.218394e-1 1.159407e-1
3.163913e9 1.490748e-1 -2.893542e-2 3.148312e-1 -9.115370e-1 -1.217951e-5 5.358175e-4 -5.267690e-4 1.995547e-5
 3.149743e-1 -9.105045e-1 9.690684e-2 1.103210e-1 -5.070231e-4 -2.477189e-5 4.412064e-4 -4.308503e-4
 -9.083462e-6 5.381887e-4 -5.236406e-4 -1.310539e-5 1.728493e-1 -2.686424e-2 2.896360e-1 -9.170821e-1
 -5.166793e-4 1.650927e-5 4.470695e-4 -4.285881e-4 2.898919e-1 -9.162607e-1 1.235169e-1 1.158734e-1
3.183746e9 1.499861e-1 -3.045086e-2 3.075742e-1 -9.137513e-1 -1.750268e-5 5.413947e-4 -5.306880e-4 2.678003e-5
 3.077437e-1 -9.127175e-1 9.840405e-2 1.104300e-1 -5.111904e-4 -1.915518e-5 4.404054e-4 -4.411950e-4
 -1.407172e-5 5.436033e-4 -5.275257e-4 -7.008398e-6 1.738563e-1 -2.861309e-2 2.821933e-1 -9.191130e-1
 -5.200556e-4 2.336198e-5 4.463588e-4 -4.394133e-4 2.824672e-1 -9.182937e-1 1.251994e-1 1.157848e-1
3.203579e9 1.508838e-1 -3.198160e-2 3.003008e-1 -9.159053e-1 -2.286940e-5 5.471921e-4 -5.344742e-4 3.369504e-5
 3.004966e-1 -9.148712e-1 9.990769e-2 1.105210e-1 -5.152538e-4 -1.346411e-5 4.394290e-4 -4.517692e-4
 -1.911899e-5 5.492127e-4 -5.312935e-4 -8.743924e-7 1.748457e-1 -3.037950e-2 2.747358e-1 -9.210815e-1
 -5.232735e-4 3.026644e-5 4.454261e-4 -4.504609e-4 2.750278e-1 -9.202645e-1 1.268867e-1 1.156750e-1
3.223411e9 1.517677e-1 -3.352752e-2 2.930115e-1 -9.179986e-1 -2.827300e-5 5.532112e-4 -5.381252e-4 4.069505e-5
 2.932337e-1 -9.169655e-1 1.014176e-1 1.105939e-1 -5.192116e-4 -7.703483e-6 4.382638e-4 -4.625726e-4
 -2.422058e-5 5.550200e-4 -5.349462e-4 5.291112e-6 1.758170e-1 -3.216320e-2 2.672642e-1 -9.229874e-1
 -5.263333e-4 3.721506e-5 4.442601e-4 -4.617263e-4 2.675743e-1 -9.221731e-1 1.285784e-1 1.155438e-1
3.243244e9 1.526374e-1 -3.508849e-2 2.857069e-1 -9.200313e-1 -3.370682e-5 5.594531e-4 -5.416386e-4 4.777446e-5
 2.859553e-1 -9.190003e-1 1.029334e-1 1.106486e-1 -5.230621e-4 -1.878232e-6 4.368964e-4 -4.736045e-4
 -2.937164e-5 5.610285e-4 -5.384865e-4 1.148287e-5 1.767700e-1 -3.396394e-2 2.597791e-1 -9.248307e-1
 -5.292355e-4 4.420032e-5 4.428500e-4 -4.732045e-4 2.601072e-1 -9.240193e-1 1.302743e-1 1.153910e-1
3.263077e9 1.534929e-1 -3.666437e-2 2.783877e-1 -9.220031e-1 -3.916419e-5 5.659189e-4 -5.450126e-4 5.492756e-5
 2.786621e-1 -9.209755e-1 1.044551e-1 1.106849e-1 -5.268042e-4 4.006628e-6 4.353134e-4 -4.848634e-4
 -3.456715e-5 5.672411e-4 -5.419170e-4 1.769594e-5 1.777044e-1 -3.578144e-2 2.522809e-1 -9.266113e-1
 -5.319813e-4 5.121485e-5 4.411850e-4 -4.848901e-4 2.526272e-1 -9.258031e-1 1.319740e-1 1.152166e-1
3.282910e9 1.543338e-1 -3.825502e-2 2.710544e-1 -9.239141e-1 -4.463850e-5 5.726092e-4 -5.482453e-4 6.214856e-5
 2.713545e-1 -9.228909e-1 1.059823e-1 1.107028e-1 -5.304368e-4 9.946003e-6 4.335011e-4 -4.963473e-4
 -3.980190e-5 5.736605e-4 -5.452407e-4 2.392566e-5 1.786199e-1 -3.761543e-2 2.447703e-1 -9.283291e-1
 -5.345721e-4 5.825139e-5 4.392549e-4 -4.967777e-4 2.451348e-1 -9.275245e-1 1.336773e-1 1.150204e-1
3.302742e9 1.551598e-1 -3.986029e-2 2.637077e-1 -9.257641e-1 -5.012317e-5 5.795244e-4 -5.513355e-4 6.943154e-5
 2.640331e-1 -9.247463e-1 1.075148e-1 1.107022e-1 -5.339590e-4 1.593473e-5 4.314460e-4 -5.080534e-4
 -4.507053e-5 5.802893e-4 -5.484610e-4 3.016766e-5 1.795163e-1 -3.946561e-2 2.372478e-1 -9.299840e-1
 -5.370098e-4 6.530285e-5 4.370493e-4 -5.088615e-4 2.376305e-1 -9.291833e-1 1.353840e-1 1.148023e-1
3.322575e9 1.559708e-1 -4.148002e-2 2.563483e-1 -9.275531e-1 -5.561165e-5 5.866646e-4 -5.542819e-4 7.677056e-5
 2.566985e-1 -9.265418e-1 1.090524e-1 1.106829e-1 -5.373704e-4 2.196759e-5 4.291343e-4 -5.199785e-4
 -5.036753e-5 5.871301e-4 -5.515810e-4 3.641790e-5 1.803932e-1 -4.133172e-2 2.297139e-1 -9.315761e-1
 -5.392966e-4 7.236231e-5 4.345585e-4 -5.211356e-4 2.301149e-1 -9.307795e-1 1.370937e-1 1.145622e-1
3.342408e9 1.567664e-1 -4.311407e-2 2.489766e-1 -9.292811e-1 -6.109750e-5 5.940295e-4 -5.570839e-4 8.415959e-5
 2.493511e-1 -9.282772e-1 1.105949e-1 1.106449e-1 -5.406708e-4 2.803932e-5 4.265525e-4 -5.321186e-4
 -5.568721e-5 5.941849e-4 -5.546043e-4 4.267263e-5 1.812505e-1 -4.321345e-2 2.221693e-1 -9.331052e-1
 -5.414352e-4 7.942305e-5 4.317726e-4 -5.335938e-4 2.225886e-1 -9.323130e-1 1.388061e-1 1.143000e-1
3.362241e9 1.575465e-1 -4.476225e-2 2.415933e-1 -9.309480e-1 -6.657432e-5 6.016189e-4 -5.597409e-4 9.159255e-5
 2.419915e-1 -9.299524e-1 1.121420e-1 1.105879e-1 -5.438601e-4 3.414462e-5 4.236867e-4 -5.444691e-4
 -6.102376e-5 6.014558e-4 -5.575345e-4 4.892842e-5 1.820879e-1 -4.511050e-2 2.146145e-1 -9.345713e-1
 -5.434284e-4 8.647857e-5 4.286820e-4 -5.462300e-4 2.150521e-1 -9.337838e-1 1.405209e-1 1.140156e-1
3.382074e9 1.583106e-1 -4.642439e-2 2.341990e-1 -9.325539e-1 -7.203583e-5 6.094319e-4 -5.622527e-4 9.906337e-5
 2.346202e-1 -9.315673e-1 1.136936e-1 1.105121e-1 -5.469386e-4 4.027820e-5 4.205236e-4 -5.570247e-4
 -6.637125e-5 6.089445e-4 -5.603753e-4 5.518212e-5 1.829050e-1 -4.702258e-2 2.070499e-1 -9.359743e-1
 -5.452796e-4 9.352261e-5 4.252774e-4 -5.590375e-4 2.075060e-1 -9.351919e-1 1.422378e-1 1.137090e-1
3.401906e9 1.590586e-1 -4.810031e-2 2.267943e-1 -9.340987e-1 -7.747586e-5 6.174676e-4 -5.646195e-4 1.065659e-4
 2.272378e-1 -9.331219e-1 1.152495e-1 1.104172e-1 -5.499069e-4 4.643474e-5 4.170494e-4 -5.697797e-4
 -7.172360e-5 6.166524e-4 -5.631305e-4 6.143089e-5 1.837018e-1 -4.894937e-2 1.994763e-1 -9.373143e-1
 -5.469923e-4 1.005491e-4 4.215494e-4 -5.720099e-4 1.999508e-1 -9.365372e-1 1.439566e-1 1.133799e-1
3.421739e9 1.597903e-1 -4.978982e-2 2.193798e-1 -9.355824e-1 -8.288833e-5 6.257248e-4 -5.668416e-4 1.140941e-4
 2.198448e-1 -9.346161e-1 1.168093e-1 1.103031e-1 -5.527659e-4 5.260892e-5 4.132510e-4 -5.827275e-4
 -7.707465e-5 6.245807e-4 -5.658038e-4 6.767217e-5 1.844778e-1 -5.089056e-2 1.918941e-1 -9.385912e-1
 -5.485704e-4 1.075524e-4 4.174888e-4 -5.851403e-4 1.923870e-1 -9.378198e-1 1.456770e-1 1.130284e-1
3.441572e9 1.605052e-1 -5.149272e-2 2.119561e-1 -9.370050e-1 -8.826732e-5 6.342020e-4 -5.689199e-4 1.216419e-4
 2.124418e-1 -9.360498e-1 1.183729e-1 1.101699e-1 -5.555166e-4 5.879548e-5 4.091150e-4 -5.958609e-4
 -8.241814e-5 6.327304e-4 -5.683991e-4 7.390368e-5 1.852330e-1 -5.284584e-2 1.843039e-1 -9.398051e-1
 -5.500181e-4 1.145270e-4 4.130866e-4 -5.984219e-4 1.848154e-1 -9.390395e-1 1.473986e-1 1.126544e-1
3.461405e9 1.612032e-1 -5.320878e-2 2.045236e-1 -9.383667e-1 -9.360703e-5 6.428975e-4 -5.708554e-4 1.292032e-4
 2.050293e-1 -9.374229e-1 1.199401e-1 1.100173e-1 -5.581606e-4 6.498915e-5 4.046284e-4 -6.091723e-4
 -8.774775e-5 6.411022e-4 -5.709201e-4 8.012341e-5 1.859670e-1 -5.481488e-2 1.767062e-1 -9.409557e-1
 -5.513398e-4 1.214676e-4 4.083335e-4 -6.118474e-4 1.772363e-1 -9.401964e-1 1.491212e-1 1.122578e-1
3.481237e9 1.618840e-1 -5.493780e-2 1.970830e-1 -9.396674e-1 -9.890182e-5 6.518093e-4 -5.726495e-4 1.367720e-4
 1.976078e-1 -9.387355e-1 1.215107e-1 1.098453e-1 -5.606995e-4 7.118474e-5 3.997783e-4 -6.226531e-4
 -9.305710e-5 6.496962e-4 -5.733707e-4 8.632959e-5 1.866796e-1 -5.679736e-2 1.691016e-1 -9.420433e-1
 -5.525400e-4 1.283694e-4 4.032207e-4 -6.254097e-4 1.696503e-1 -9.412905e-1 1.508444e-1 1.118384e-1
3.501070e9 1.625473e-1 -5.667954e-2 1.896349e-1 -9.409073e-1 -1.041462e-4 6.609353e-4 -5.743038e-4 1.443425e-4
 1.901779e-1 -9.399875e-1 1.230844e-1 1.096539e-1 -5.631353e-4 7.737712e-5 3.945519e-4 -6.362945e-4
 -9.833975e-5 6.585125e-4 -5.757546e-4 9.252069e-5 1.873707e-1 -5.879295e-2 1.614907e-1 -9.430677e-1
 -5.536238e-4 1.352278e-4 3.977390e-4 -6.391011e-4 1.620580e-1 -9.423218e-1 1.525680e-1 1.113964e-1
3.520903e9 1.631929e-1 -5.843376e-2 1.821797e-1 -9.420863e-1 -1.093349e-4 6.702732e-4 -5.758204e-4 1.519087e-4
 1.827401e-1 -9.411789e-1 1.246610e-1 1.094429e-1 -5.654701e-4 8.356121e-5 3.889370e-4 -6.500869e-4
 -1.035893e-4 6.675509e-4 -5.780755e-4 9.869541e-5 1.880400e-1 -6.080131e-2 1.538738e-1 -9.440289e-1
 -5.545960e-4 1.420386e-4 3.918796e-4 -6.529140e-4 1.544599e-1 -9.432902e-1 1.542916e-1 1.109315e-1
3.540736e9 1.638204e-1 -6.020020e-2 1.747179e-1 -9.432046e-1 -1.144627e-4 6.798204e-4 -5.772016e-4 1.594649e-4
 1.752950e-1 -9.423097e-1 1.262404e-1 1.092122e-1 -5.677066e-4 8.973205e-5 3.829214e-4 -6.640199e-4
 -1.087993e-4 6.768106e-4 -5.803369e-4 1.048526e-4 1.886873e-1 -6.282210e-2 1.462517e-1 -9.449271e-1
 -5.554620e-4 1.487978e-4 3.856333e-4 -6.668403e-4 1.468565e-1 -9.441959e-1 1.560150e-1 1.104437e-1
3.560569e9 1.644297e-1 -6.197860e-2 1.672501e-1 -9.442622e-1 -1.195248e-4 6.895741e-4 -5.784498e-4 1.670054e-4
 1.678430e-1 -9.433798e-1 1.278223e-1 1.089618e-1 -5.698475e-4 9.588476e-5 3.764932e-4 -6.780829e-4
 -1.139633e-4 6.862907e-4 -5.825425e-4 1.109915e-4 1.893124e-1 -6.485499e-2 1.386249e-1 -9.457621e-1
 -5.562270e-4 1.555018e-4 3.789913e-4 -6.808718e-4 1.392485e-1 -9.450388e-1 1.577379e-1 1.099330e-1
3.580401e9 1.650204e-1 -6.376869e-2 1.597769e-1 -9.452592e-1 -1.245163e-4 6.995313e-4 -5.795681e-4 1.745249e-4
 1.603848e-1 -9.443892e-1 1.294065e-1 1.086916e-1 -5.718959e-4 1.020146e-4 3.696410e-4 -6.922645e-4
 -1.190750e-4 6.959899e-4 -5.846957e-4 1.171111e-4 1.899151e-1 -6.689963e-2 1.309937e-1 -9.465340e-1
 -5.568967e-4 1.621473e-4 3.719443e-4 -6.950000e-4 1.316362e-1 -9.458189e-1 1.594599e-1 1.093993e-1
3.600234e9 1.655923e-1 -6.557018e-2 1.522985e-1 -9.461957e-1 -1.294328e-4 7.096890e-4 -5.805597e-4 1.820178e-4
 1.529208e-1 -9.453380e-1 1.309928e-1 1.084014e-1 -5.738551e-4 1.081169e-4 3.623535e-4 -7.065528e-4
 -1.241281e-4 7.059066e-4 -5.867998e-4 1.232110e-4 1.904952e-1 -6.895568e-2 1.233589e-1 -9.472428e-1
 -5.574767e-4 1.687314e-4 3.644835e-4 -7.092160e-4 1.240204e-1 -9.465363e-1 1.611807e-1 1.088426e-1
3.620067e9 1.661452e-1 -6.738279e-2 1.448157e-1 -9.470718e-1 -1.342700e-4 7.200439e-4 -5.814279e-4 1.894791e-4
 1.454516e-1 -9.462262e-1 1.325810e-1 1.080912e-1 -5.757286e-4 1.141872e-4 3.546201e-4 -7.209352e-4
 -1.291165e-4 7.160387e-4 -5.888582e-4 1.292906e-4 1.910526e-1 -7.102277e-2 1.157210e-1 -9.478886e-1
 -5.579725e-4 1.752515e-4 3.565998e-4 -7.235105e-4 1.164013e-1 -9.471909e-1 1.629002e-1 1.082628e-1
3.639900e9 1.666789e-1 -6.920619e-2 1.373287e-1 -9.478877e-1 -1.390236e-4 7.305926e-4 -5.821765e-4 1.969036e-4
 1.379777e-1 -9.470538e-1 1.341709e-1 1.077610e-1 -5.775204e-4 1.202212e-4 3.464303e-4 -7.353989e-4
 -1.340340e-4 7.263839e-4 -5.908740e-4 1.353496e-4 1.915870e-1 -7.310056e-2 1.080803e-1 -9.484713e-1
 -5.583901e-4 1.817054e-4 3.482841e-4 -7.378738e-4 1.087797e-1 -9.477830e-1 1.646179e-1 1.076598e-1
3.659732e9 1.671930e-1 -7.104008e-2 1.298381e-1 -9.486432e-1 -1.436899e-4 7.413314e-4 -5.828095e-4 2.042866e-4
 1.304996e-1 -9.478208e-1 1.357623e-1 1.074105e-1 -5.792346e-4 1.262147e-4 3.377742e-4 -7.499302e-4
 -1.388747e-4 7.369396e-4 -5.928503e-4 1.413878e-4 1.920984e-1 -7.518870e-2 1.004376e-1 -9.489911e-1
 -5.587352e-4 1.880911e-4 3.395272e-4 -7.522960e-4 1.011561e-1 -9.483124e-1 1.663335e-1 1.070337e-1
3.679565e9 1.676873e-1 -7.288413e-2 1.223443e-1 -9.493387e-1 -1.482652e-4 7.522568e-4 -5.833312e-4 2.116233e-4
 1.230179e-1 -9.485273e-1 1.373550e-1 1.070397e-1 -5.808754e-4 1.321637e-4 3.286423e-4 -7.645153e-4
 -1.436329e-4 7.477029e-4 -5.947900e-4 1.474048e-4 1.925866e-1 -7.728682e-2 9.279328e-2 -9.494479e-1
 -5.590138e-4 1.944070e-4 3.303203e-4 -7.667665e-4 9.353084e-2 -9.487792e-1 1.680468e-1 1.063844e-1
3.699398e9 1.681617e-1 -7.473800e-2 1.148477e-1 -9.499741e-1 -1.527461e-4 7.633649e-4 -5.837462e-4 2.189094e-4
 1.155330e-1 -9.491733e-1 1.389488e-1 1.066486e-1 -5.824474e-4 1.380644e-4 3.190256e-4 -7.791394e-4
 -1.483030e-4 7.586703e-4 -5.966961e-4 1.534006e-4 1.930513e-1 -7.939455e-2 8.514787e-2 -9.498418e-1
 -5.592316e-4 2.006518e-4 3.206544e-4 -7.812743e-4 8.590457e-2 -9.491835e-1 1.697574e-1 1.057118e-1
3.719231e9 1.686159e-1 -7.660136e-2 1.073488e-1 -9.505496e-1 -1.571294e-4 7.746518e-4 -5.840591e-4 2.261406e-4
 1.080454e-1 -9.497588e-1 1.405434e-1 1.062369e-1 -5.839554e-4 1.439133e-4 3.089155e-4 -7.937878e-4
 -1.528797e-4 7.698384e-4 -5.985714e-4 1.593751e-4 1.934925e-1 -8.151155e-2 7.750190e-2 -9.501728e-1
 -5.593945e-4 2.068246e-4 3.105204e-4 -7.958079e-4 7.827778e-2 -9.495254e-1 1.714651e-1 1.050160e-1
3.739064e9 1.690498e-1 -7.847384e-2 9.984790e-2 -9.510652e-1 -1.614122e-4 7.861136e-4 -5.842749e-4 2.333130e-4
 1.005557e-1 -9.502840e-1 1.421386e-1 1.058047e-1 -5.854044e-4 1.497069e-4 2.983040e-4 -8.084449e-4
 -1.573578e-4 7.812031e-4 -6.004186e-4 1.653282e-4 1.939100e-1 -8.363745e-2 6.985588e-2 -9.504410e-1
 -5.595084e-4 2.129249e-4 2.999096e-4 -8.103553e-4 7.065097e-2 -9.498048e-1 1.731695e-1 1.042969e-1
3.758896e9 1.694630e-1 -8.035508e-2 9.234549e-2 -9.515210e-1 -1.655919e-4 7.977461e-4 -5.843990e-4 2.404229e-4
 9.306435e-2 -9.507488e-1 1.437342e-1 1.053517e-1 -5.867997e-4 1.554420e-4 2.871836e-4 -8.230950e-4
 -1.617325e-4 7.927604e-4 -6.022405e-4 1.712598e-4 1.943037e-1 -8.577187e-2 6.221033e-2 -9.506464e-1
 -5.595789e-4 2.189521e-4 2.888134e-4 -8.249038e-4 6.302464e-2 -9.500219e-1 1.748703e-1 1.035544e-1
3.778729e9 1.698555e-1 -8.224472e-2 8.484194e-2 -9.519171e-1 -1.696659e-4 8.095452e-4 -5.844366e-4 2.474668e-4
 8.557181e-2 -9.511534e-1 1.453300e-1 1.048779e-1 -5.881467e-4 1.611159e-4 2.755474e-4 -8.377218e-4
 -1.659992e-4 8.045058e-4 -6.040395e-4 1.771699e-4 1.946735e-1 -8.791445e-2 5.456576e-2 -9.507892e-1
 -5.596120e-4 2.249065e-4 2.772231e-4 -8.394404e-4 5.539932e-2 -9.501767e-1 1.765672e-1 1.027887e-1
3.798562e9 1.702271e-1 -8.414237e-2 7.733764e-2 -9.522535e-1 -1.736322e-4 8.215068e-4 -5.843935e-4 2.544415e-4
 7.807858e-2 -9.514978e-1 1.469258e-1 1.043832e-1 -5.894510e-4 1.667257e-4 2.633890e-4 -8.523086e-4
 -1.701538e-4 8.164345e-4 -6.058185e-4 1.830585e-4 1.950192e-1 -9.006482e-2 4.692267e-2 -9.508693e-1
 -5.596131e-4 2.307881e-4 2.651306e-4 -8.539511e-4 4.777548e-2 -9.502694e-1 1.782600e-1 1.019995e-1
3.818395e9 1.705777e-1 -8.604766e-2 6.983296e-2 -9.525304e-1 -1.774888e-4 8.336266e-4 -5.842754e-4 2.613441e-4
 7.058514e-2 -9.517821e-1 1.485214e-1 1.038674e-1 -5.907184e-4 1.722691e-4 2.507025e-4 -8.668385e-4
 -1.741921e-4 8.285417e-4 -6.075798e-4 1.889254e-4 1.953407e-1 -9.222261e-2 3.928156e-2 -9.508868e-1
 -5.595879e-4 2.365976e-4 2.525278e-4 -8.684216e-4 4.015364e-2 -9.502999e-1 1.799483e-1 1.011870e-1
3.838227e9 1.709070e-1 -8.796020e-2 6.232828e-2 -9.527477e-1 -1.812341e-4 8.459004e-4 -5.840882e-4 2.681721e-4
 6.309195e-2 -9.520063e-1 1.501164e-1 1.033305e-1 -5.919549e-4 1.777440e-4 2.374829e-4 -8.812942e-4
 -1.781106e-4 8.408222e-4 -6.093261e-4 1.947705e-4 1.956380e-1 -9.438745e-2 3.164294e-2 -9.508418e-1
 -5.595417e-4 2.423358e-4 2.394069e-4 -8.828368e-4 3.253427e-2 -9.502683e-1 1.816318e-1 1.003511e-1
3.858060e9 1.712149e-1 -8.987959e-2 5.482397e-2 -9.529056e-1 -1.848666e-4 8.583239e-4 -5.838381e-4 2.749231e-4
 5.559948e-2 -9.521706e-1 1.517106e-1 1.027722e-1 -5.931666e-4 1.831484e-4 2.237255e-4 -8.956580e-4
 -1.819062e-4 8.532706e-4 -6.110599e-4 2.005938e-4 1.959110e-1 -9.655897e-2 2.400731e-2 -9.507344e-1
 -5.594799e-4 2.480038e-4 2.257606e-4 -8.971810e-4 2.491789e-2 -9.501748e-1 1.833102e-1 9.949177e-2
3.877893e9 1.715014e-1 -9.180544e-2 4.732040e-2 -9.530040e-1 -1.883852e-4 8.708928e-4 -5.835314e-4 2.815952e-4
 4.810818e-2 -9.522751e-1 1.533038e-1 1.021926e-1 -5.943598e-4 1.884807e-4 2.094263e-4 -9.099120e-4
 -1.855758e-4 8.658814e-4 -6.127839e-4 2.063950e-4 1.961595e-1 -9.873680e-2 1.637516e-2 -9.505647e-1
 -5.594076e-4 2.536028e-4 2.115820e-4 -9.114379e-4 1.730496e-2 -9.500194e-1 1.849831e-1 9.860904e-2
3.897726e9 1.717663e-1 -9.373734e-2 3.981794e-2 -9.530430e-1 -1.917889e-4 8.836030e-4 -5.831744e-4 2.881866e-4
 4.061850e-2 -9.523197e-1 1.548958e-1 1.015915e-1 -5.955409e-4 1.937397e-4 1.945821e-4 -9.240380e-4
 -1.891171e-4 8.786490e-4 -6.145006e-4 2.121740e-4 1.963834e-1 -1.009206e-1 8.746997e-3 -9.503326e-1
 -5.593300e-4 2.591345e-4 1.968644e-4 -9.255905e-4 9.695984e-3 -9.498022e-1 1.866503e-1 9.770290e-2
3.917559e9 1.720095e-1 -9.567490e-2 3.231695e-2 -9.530226e-1 -1.950772e-4 8.964501e-4 -5.827737e-4 2.946960e-4
 3.313089e-2 -9.523046e-1 1.564862e-1 1.009686e-1 -5.967165e-4 1.989243e-4 1.791902e-4 -9.380176e-4
 -1.925279e-4 8.915677e-4 -6.162128e-4 2.179306e-4 1.965827e-1 -1.031099e-1 1.123302e-3 -9.500384e-1
 -5.592518e-4 2.646006e-4 1.816020e-4 -9.396212e-4 2.091434e-3 -9.495233e-1 1.883115e-1 9.677334e-2
3.937391e9 1.722310e-1 -9.761770e-2 2.481780e-2 -9.529428e-1 -1.982497e-4 9.094299e-4 -5.823358e-4 3.011224e-4
 2.564579e-2 -9.522299e-1 1.580749e-1 1.003241e-1 -5.978933e-4 2.040338e-4 1.632487e-4 -9.518322e-4
 -1.958067e-4 9.046315e-4 -6.179233e-4 2.236645e-4 1.967574e-1 -1.053044e-1 -6.495432e-3 -9.496820e-1
 -5.591777e-4 2.700031e-4 1.657894e-4 -9.535117e-4 -5.508209e-3 -9.491828e-1 1.899664e-1 9.582036e-2
3.957224e9 1.724307e-1 -9.956535e-2 1.732086e-2 -9.528037e-1 -2.013061e-4 9.225384e-4 -5.818673e-4 3.074652e-4
 1.816362e-2 -9.520957e-1 1.596614e-1 9.965760e-2 -5.990779e-4 2.090680e-4 1.467562e-4 -9.654630e-4
 -1.989520e-4 9.178345e-4 -6.196349e-4 2.293755e-4 1.969073e-1 -1.075037e-1 -1.410872e-2 -9.492636e-1
 -5.591125e-4 2.753440e-4 1.494217e-4 -9.672433e-4 -1.310247e-2 -9.487808e-1 1.916146e-1 9.484397e-2
3.977057e9 1.726085e-1 -1.015174e-1 9.826495e-3 -9.526052e-1 -2.042466e-4 9.357714e-4 -5.813751e-4 3.137239e-4
 1.068482e-2 -9.519021e-1 1.612455e-1 9.896911e-2 -6.002772e-4 2.140265e-4 1.297121e-4 -9.788910e-4
 -2.019632e-4 9.311709e-4 -6.213505e-4 2.350633e-4 1.970324e-1 -1.097075e-1 -2.171606e-2 -9.487833e-1
 -5.590603e-4 2.806257e-4 1.324950e-4 -9.807964e-4 -2.069087e-2 -9.483174e-1 1.932557e-1 9.384416e-2
3.996890e9 1.727645e-1 -1.034736e-1 2.335086e-3 -9.523473e-1 -2.070716e-4 9.491249e-4 -5.808659e-4 3.198986e-4
 3.209809e-3 -9.516491e-1 1.628269e-1 9.825850e-2 -6.014982e-4 2.189098e-4 1.121165e-4 -9.920972e-4
 -2.048398e-4 9.446346e-4 -6.230734e-4 2.407277e-4 1.971327e-1 -1.119153e-1 -2.931699e-2 -9.482411e-1
 -5.590254e-4 2.858507e-4 1.150059e-4 -9.941511e-4 -2.827295e-2 -9.477926e-1 1.948896e-1 9.282096e-2
4.016722e9 1.728985e-1 -1.054333e-1 -5.152991e-3 -9.520300e-1 -2.097815e-4 9.625950e-4 -5.803464e-4 3.259896e-4
 -4.261000e-3 -9.513368e-1 1.644054e-1 9.752563e-2 -6.027477e-4 2.237184e-4 9.397013e-5 -1.005062e-3
 -2.075818e-4 9.582198e-4 -6.248066e-4 2.463684e-4 1.972080e-1 -1.141268e-1 -3.691102e-2 -9.476372e-1
 -5.590117e-4 2.910214e-4 9.695184e-5 -1.007287e-3 -3.584824e-2 -9.472066e-1 1.965159e-1 9.177436e-2
4.036555e9 1.730106e-1 -1.073963e-1 -1.263735e-2 -9.516533e-1 -2.123772e-4 9.761777e-4 -5.798236e-4 3.319977e-4
 -1.172719e-2 -9.509653e-1 1.659805e-1 9.677041e-2 -6.040329e-4 2.284532e-4 7.527447e-5 -1.017767e-3
 -2.101897e-4 9.719205e-4 -6.265536e-4 2.519852e-4 1.972585e-1 -1.163417e-1 -4.449767e-2 -9.469716e-1
 -5.590232e-4 2.961407e-4 7.833124e-5 -1.020183e-3 -4.341627e-2 -9.465595e-1 1.981343e-1 9.070439e-2
4.056388e9 1.731007e-1 -1.093622e-1 -2.011760e-2 -9.512171e-1 -2.148597e-4 9.898694e-4 -5.793042e-4 3.379238e-4
 -1.918836e-2 -9.505347e-1 1.675519e-1 9.599271e-2 -6.053607e-4 2.331155e-4 5.603169e-5 -1.030193e-3
 -2.126644e-4 9.857311e-4 -6.283179e-4 2.575780e-4 1.972839e-1 -1.185595e-1 -5.207646e-2 -9.462445e-1
 -5.590634e-4 3.012114e-4 5.914331e-5 -1.032818e-3 -5.097657e-2 -9.458514e-1 1.997444e-1 8.961106e-2
4.076221e9 1.731690e-1 -1.113305e-1 -2.759333e-2 -9.507215e-1 -2.172302e-4 1.003667e-3 -5.787950e-4 3.437694e-4
 -2.664410e-2 -9.500451e-1 1.691194e-1 9.519245e-2 -6.067383e-4 2.377067e-4 3.624466e-5 -1.042319e-3
 -2.150072e-4 9.996457e-4 -6.301033e-4 2.631466e-4 1.972844e-1 -1.207799e-1 -5.964692e-2 -9.454560e-1
 -5.591358e-4 3.062362e-4 3.938826e-5 -1.045169e-3 -5.852870e-2 -9.450824e-1 2.013459e-1 8.849440e-2
4.096054e9 1.732154e-1 -1.133009e-1 -3.506415e-2 -9.501663e-1 -2.194902e-4 1.017565e-3 -5.783027e-4 3.495361e-4
 -3.409401e-2 -9.494966e-1 1.706825e-1 9.436951e-2 -6.081726e-4 2.422289e-4 1.591698e-5 -1.054127e-3
 -2.172198e-4 1.013659e-3 -6.319135e-4 2.686910e-4 1.972598e-1 -1.230026e-1 -6.720858e-2 -9.446060e-1
 -5.592437e-4 3.112181e-4 1.906731e-5 -1.057216e-3 -6.607219e-2 -9.442526e-1 2.029385e-1 8.735441e-2
4.115886e9 1.732399e-1 -1.152729e-1 -4.252963e-2 -9.495516e-1 -2.216414e-4 1.031563e-3 -5.778341e-4 3.552262e-4
 -4.153769e-2 -9.488891e-1 1.722409e-1 9.352381e-2 -6.096708e-4 2.466843e-4 -4.947053e-6 -1.065598e-3
 -2.193044e-4 1.027766e-3 -6.337528e-4 2.742112e-4 1.972103e-1 -1.252271e-1 -7.476095e-2 -9.436949e-1
 -5.593900e-4 3.161601e-4 -1.817305e-6 -1.068935e-3 -7.360659e-2 -9.433621e-1 2.045219e-1 8.619114e-2
4.135719e9 1.732426e-1 -1.172463e-1 -4.998934e-2 -9.488772e-1 -2.236857e-4 1.045655e-3 -5.773957e-4 3.608419e-4
 -4.897474e-2 -9.482229e-1 1.737942e-1 9.265527e-2 -6.112398e-4 2.510753e-4 -2.634245e-5 -1.076713e-3
 -2.212633e-4 1.041960e-3 -6.356253e-4 2.797076e-4 1.971356e-1 -1.274531e-1 -8.230358e-2 -9.427226e-1
 -5.595779e-4 3.210654e-4 -2.326226e-5 -1.080304e-3 -8.113143e-2 -9.424110e-1 2.060957e-1 8.500460e-2
4.155552e9 1.732236e-1 -1.192207e-1 -5.744285e-2 -9.481433e-1 -2.256250e-4 1.059840e-3 -5.769940e-4 3.663861e-4
 -5.640477e-2 -9.474979e-1 1.753421e-1 9.176381e-2 -6.128866e-4 2.554051e-4 -4.826350e-5 -1.087452e-3
 -2.230996e-4 1.056238e-3 -6.375356e-4 2.851803e-4 1.970360e-1 -1.296802e-1 -8.983599e-2 -9.416893e-1
 -5.598099e-4 3.259368e-4 -4.526313e-5 -1.091301e-3 -8.864629e-2 -9.413995e-1 2.076597e-1 8.379484e-2
4.175385e9 1.731830e-1 -1.211957e-1 -6.488971e-2 -9.473496e-1 -2.274616e-4 1.074114e-3 -5.766356e-4 3.718618e-4
 -6.382739e-2 -9.467142e-1 1.768841e-1 9.084936e-2 -6.146181e-4 2.596768e-4 -7.070380e-5 -1.097797e-3
 -2.248164e-4 1.070595e-3 -6.394883e-4 2.906299e-4 1.969112e-1 -1.319081e-1 -9.735771e-2 -9.405952e-1
 -5.600887e-4 3.307774e-4 -6.781437e-5 -1.101902e-3 -9.615069e-2 -9.403276e-1 2.092134e-1 8.256188e-2
4.195217e9 1.731207e-1 -1.231709e-1 -7.232945e-2 -9.464962e-1 -2.291979e-4 1.088475e-3 -5.763266e-4 3.772726e-4
 -7.124219e-2 -9.458719e-1 1.784199e-1 8.991187e-2 -6.164412e-4 2.638941e-4 -9.365626e-5 -1.107729e-3
 -2.264174e-4 1.085026e-3 -6.414881e-4 2.960572e-4 1.967615e-1 -1.341364e-1 -1.048683e-1 -9.394402e-1
 -5.604168e-4 3.355904e-4 -9.090925e-5 -1.112084e-3 -1.036442e-1 -9.391956e-1 2.107566e-1 8.130577e-2
4.215050e9 1.730370e-1 -1.251461e-1 -7.976160e-2 -9.455830e-1 -2.308366e-4 1.102919e-3 -5.760733e-4 3.826221e-4
 -7.864879e-2 -9.449711e-1 1.799490e-1 8.895130e-2 -6.183626e-4 2.680608e-4 -1.171131e-4 -1.117229e-3
 -2.279064e-4 1.099527e-3 -6.435402e-4 3.014629e-4 1.965867e-1 -1.363647e-1 -1.123673e-1 -9.382246e-1
 -5.607965e-4 3.403786e-4 -1.145399e-4 -1.121826e-3 -1.111264e-1 -9.380034e-1 2.122889e-1 8.002654e-2
4.234883e9 1.729318e-1 -1.271209e-1 -8.718569e-2 -9.446100e-1 -2.323803e-4 1.117445e-3 -5.758816e-4 3.879143e-4
 -8.604678e-2 -9.440117e-1 1.814710e-1 8.796760e-2 -6.203890e-4 2.721813e-4 -1.410659e-4 -1.126279e-3
 -2.292877e-4 1.114094e-3 -6.456498e-4 3.068483e-4 1.963870e-1 -1.385928e-1 -1.198542e-1 -9.369484e-1
 -5.612299e-4 3.451452e-4 -1.386974e-4 -1.131105e-3 -1.185968e-1 -9.367512e-1 2.138100e-1 7.872425e-2
4.254716e9 1.728054e-1 -1.290950e-1 -9.460120e-2 -9.435771e-1 -2.338319e-4 1.132050e-3 -5.757574e-4 3.931538e-4
 -9.343578e-2 -9.429939e-1 1.829856e-1 8.696075e-2 -6.225269e-4 2.762600e-4 -1.655054e-4 -1.134861e-3
 -2.305657e-4 1.128725e-3 -6.478222e-4 3.122148e-4 1.961622e-1 -1.408202e-1 -1.273285e-1 -9.356119e-1
 -5.617192e-4 3.498931e-4 -1.633714e-4 -1.139899e-3 -1.260549e-1 -9.354392e-1 2.153195e-1 7.739895e-2
4.274548e9 1.726577e-1 -1.310680e-1 -1.020076e-1 -9.424844e-1 -2.351945e-4 1.146733e-3 -5.757063e-4 3.983451e-4
 -1.008154e-1 -9.419176e-1 1.844922e-1 8.593075e-2 -6.247827e-4 2.803020e-4 -1.904220e-4 -1.142957e-3
 -2.317451e-4 1.143415e-3 -6.500630e-4 3.175640e-4 1.959125e-1 -1.430466e-1 -1.347899e-1 -9.342150e-1
 -5.622663e-4 3.546252e-4 -1.885506e-4 -1.148186e-3 -1.335004e-1 -9.340675e-1 2.168171e-1 7.605068e-2
4.294381e9 1.724889e-1 -1.330398e-1 -1.094045e-1 -9.413318e-1 -2.364712e-4 1.161491e-3 -5.757337e-4 4.034931e-4
 -1.081852e-1 -9.407830e-1 1.859905e-1 8.487761e-2 -6.271626e-4 2.843125e-4 -2.158051e-4 -1.150550e-3
 -2.328308e-4 1.158163e-3 -6.523778e-4 3.228979e-4 1.956378e-1 -1.452716e-1 -1.422378e-1 -9.327580e-1
 -5.628732e-4 3.593444e-4 -2.142225e-4 -1.155944e-3 -1.409328e-1 -9.326361e-1 2.183025e-1 7.467950e-2
4.314214e9 1.722992e-1 -1.350099e-1 -1.167912e-1 -9.401193e-1 -2.376652e-4 1.176323e-3 -5.758449e-4 4.086032e-4
 -1.155448e-1 -9.395901e-1 1.874801e-1 8.380133e-2 -6.296728e-4 2.882969e-4 -2.416438e-4 -1.157623e-3
 -2.338280e-4 1.172966e-3 -6.547725e-4 3.282188e-4 1.953383e-1 -1.474949e-1 -1.496718e-1 -9.312410e-1
 -5.635417e-4 3.640534e-4 -2.403736e-4 -1.163153e-3 -1.483517e-1 -9.311453e-1 2.197753e-1 7.328548e-2
4.334047e9 1.720886e-1 -1.369782e-1 -1.241673e-1 -9.388468e-1 -2.387799e-4 1.191227e-3 -5.760449e-4 4.136808e-4
 -1.228937e-1 -9.383388e-1 1.889604e-1 8.270195e-2 -6.323192e-4 2.922612e-4 -2.679264e-4 -1.164159e-3
 -2.347420e-4 1.187823e-3 -6.572529e-4 3.335294e-4 1.950139e-1 -1.497161e-1 -1.570915e-1 -9.296641e-1
 -5.642735e-4 3.687550e-4 -2.669891e-4 -1.169793e-3 -1.557565e-1 -9.295951e-1 2.212352e-1 7.186869e-2
4.353880e9 1.718572e-1 -1.389444e-1 -1.315321e-1 -9.375145e-1 -2.398189e-4 1.206203e-3 -5.763385e-4 4.187316e-4
 -1.302317e-1 -9.370293e-1 1.904310e-1 8.157952e-2 -6.351076e-4 2.962114e-4 -2.946406e-4 -1.170142e-3
 -2.355782e-4 1.202732e-3 -6.598252e-4 3.388327e-4 1.946646e-1 -1.519350e-1 -1.644964e-1 -9.280274e-1
 -5.650705e-4 3.734520e-4 -2.940533e-4 -1.175844e-3 -1.631470e-1 -9.279857e-1 2.226817e-1 7.042918e-2
4.373712e9 1.716052e-1 -1.409082e-1 -1.388852e-1 -9.361223e-1 -2.407856e-4 1.221249e-3 -5.767302e-4 4.237617e-4
 -1.375581e-1 -9.356616e-1 1.918915e-1 8.043410e-2 -6.380434e-4 3.001541e-4 -3.217735e-4 -1.175555e-3
 -2.363420e-4 1.217691e-3 -6.624952e-4 3.441322e-4 1.942907e-1 -1.541511e-1 -1.718860e-1 -9.263312e-1
 -5.659344e-4 3.781469e-4 -3.215494e-4 -1.181288e-3 -1.705226e-1 -9.263172e-1 2.241147e-1 6.896705e-2
4.393545e9 1.713326e-1 -1.428694e-1 -1.462260e-1 -9.346702e-1 -2.416838e-4 1.236365e-3 -5.772243e-4 4.287772e-4
 -1.448727e-1 -9.342357e-1 1.933415e-1 7.926577e-2 -6.411321e-4 3.040958e-4 -3.493119e-4 -1.180383e-3
 -2.370391e-4 1.232701e-3 -6.652693e-4 3.494315e-4 1.938920e-1 -1.563641e-1 -1.792598e-1 -9.245754e-1
 -5.668669e-4 3.828422e-4 -3.494599e-4 -1.186106e-3 -1.778829e-1 -9.245897e-1 2.255336e-1 6.748236e-2
4.413378e9 1.710397e-1 -1.448277e-1 -1.535538e-1 -9.331584e-1 -2.425170e-4 1.251550e-3 -5.778247e-4 4.337846e-4
 -1.521750e-1 -9.327516e-1 1.947805e-1 7.807462e-2 -6.443787e-4 3.080437e-4 -3.772416e-4 -1.184612e-3
 -2.376750e-4 1.247761e-3 -6.681534e-4 3.547349e-4 1.934686e-1 -1.585737e-1 -1.866175e-1 -9.227604e-1
 -5.678698e-4 3.875406e-4 -3.777660e-4 -1.190282e-3 -1.852275e-1 -9.228034e-1 2.269382e-1 6.597520e-2
4.433211e9 1.707264e-1 -1.467830e-1 -1.608682e-1 -9.315868e-1 -2.432891e-4 1.266803e-3 -5.785352e-4 4.387905e-4
 -1.594646e-1 -9.312095e-1 1.962080e-1 7.686076e-2 -6.477882e-4 3.120049e-4 -4.055483e-4 -1.188226e-3
 -2.382554e-4 1.262872e-3 -6.711537e-4 3.600470e-4 1.930206e-1 -1.607795e-1 -1.939586e-1 -9.208861e-1
 -5.689449e-4 3.922444e-4 -4.064485e-4 -1.193799e-3 -1.925559e-1 -9.209585e-1 2.283281e-1 6.444567e-2
4.453043e9 1.703929e-1 -1.487349e-1 -1.681685e-1 -9.299556e-1 -2.440039e-4 1.282126e-3 -5.793592e-4 4.438017e-4
 -1.667409e-1 -9.296092e-1 1.976236e-1 7.562432e-2 -6.513652e-4 3.159869e-4 -4.342169e-4 -1.191211e-3
 -2.387859e-4 1.278033e-3 -6.742763e-4 3.653729e-4 1.925481e-1 -1.629812e-1 -2.012827e-1 -9.189528e-1
 -5.700940e-4 3.969562e-4 -4.354871e-4 -1.196643e-3 -1.998677e-1 -9.190550e-1 2.297030e-1 6.289384e-2
4.472876e9 1.700393e-1 -1.506834e-1 -1.754541e-1 -9.282649e-1 -2.446653e-4 1.297517e-3 -5.802999e-4 4.488252e-4
 -1.740036e-1 -9.279509e-1 1.990269e-1 7.436544e-2 -6.551140e-4 3.199975e-4 -4.632322e-4 -1.193555e-3
 -2.392720e-4 1.293247e-3 -6.775272e-4 3.707180e-4 1.920512e-1 -1.651786e-1 -2.085892e-1 -9.169607e-1
 -5.713191e-4 4.016782e-4 -4.648612e-4 -1.198800e-3 -2.071626e-1 -9.170930e-1 2.310623e-1 6.131984e-2
4.492709e9 1.696656e-1 -1.526282e-1 -1.827245e-1 -9.265147e-1 -2.452770e-4 1.312977e-3 -5.813601e-4 4.538681e-4
 -1.812522e-1 -9.262346e-1 2.004175e-1 7.308427e-2 -6.590389e-4 3.240447e-4 -4.925781e-4 -1.195244e-3
 -2.397190e-4 1.308515e-3 -6.809124e-4 3.760883e-4 1.915298e-1 -1.673711e-1 -2.158778e-1 -9.149098e-1
 -5.726221e-4 4.064128e-4 -4.945492e-4 -1.200256e-3 -2.144400e-1 -9.150728e-1 2.324060e-1 5.972375e-2
4.512542e9 1.692721e-1 -1.545691e-1 -1.899791e-1 -9.247051e-1 -2.458430e-4 1.328507e-3 -5.825423e-4 4.589377e-4
 -1.884862e-1 -9.244604e-1 2.017949e-1 7.178098e-2 -6.631436e-4 3.281367e-4 -5.222384e-4 -1.196265e-3
 -2.401325e-4 1.323839e-3 -6.844375e-4 3.814900e-4 1.909841e-1 -1.695586e-1 -2.231480e-1 -9.128003e-1
 -5.740052e-4 4.111625e-4 -5.245294e-4 -1.201002e-3 -2.216995e-1 -9.129945e-1 2.337334e-1 5.810570e-2
4.532375e9 1.688587e-1 -1.565059e-1 -1.972172e-1 -9.228364e-1 -2.463672e-4 1.344108e-3 -5.838488e-4 4.640414e-4
 -1.957052e-1 -9.226282e-1 2.031586e-1 7.045577e-2 -6.674317e-4 3.322817e-4 -5.521965e-4 -1.196608e-3
 -2.405175e-4 1.339220e-3 -6.881082e-4 3.869300e-4 1.904141e-1 -1.717406e-1 -2.303993e-1 -9.106325e-1
 -5.754705e-4 4.159295e-4 -5.547794e-4 -1.201026e-3 -2.289406e-1 -9.108582e-1 2.350443e-1 5.646579e-2
4.552207e9 1.684255e-1 -1.584384e-1 -2.044383e-1 -9.209087e-1 -2.468534e-4 1.359780e-3 -5.852816e-4 4.691867e-4
 -2.029086e-1 -9.207382e-1 2.045083e-1 6.910882e-2 -6.719066e-4 3.364886e-4 -5.824351e-4 -1.196260e-3
 -2.408790e-4 1.354662e-3 -6.919300e-4 3.924155e-4 1.898199e-1 -1.739170e-1 -2.376314e-1 -9.084064e-1
 -5.770204e-4 4.207163e-4 -5.852766e-4 -1.200319e-3 -2.361631e-1 -9.086641e-1 2.363383e-1 5.480416e-2
4.572040e9 1.679726e-1 -1.603665e-1 -2.116419e-1 -9.189222e-1 -2.473055e-4 1.375526e-3 -5.868421e-4 4.743811e-4
 -2.100960e-1 -9.187904e-1 2.058436e-1 6.774035e-2 -6.765712e-4 3.407660e-4 -6.129370e-4 -1.195211e-3
 -2.412219e-4 1.370167e-3 -6.959080e-4 3.979541e-4 1.892017e-1 -1.760872e-1 -2.448438e-1 -9.061222e-1
 -5.786572e-4 4.255254e-4 -6.159984e-4 -1.198874e-3 -2.433664e-1 -9.064123e-1 2.376151e-1 5.312092e-2
4.591873e9 1.675000e-1 -1.622899e-1 -2.188272e-1 -9.168771e-1 -2.477275e-4 1.391345e-3 -5.885317e-4 4.796323e-4
 -2.172669e-1 -9.167849e-1 2.071640e-1 6.635058e-2 -6.814282e-4 3.451229e-4 -6.436845e-4 -1.193451e-3
 -2.415507e-4 1.385739e-3 -7.000472e-4 4.035539e-4 1.885594e-1 -1.782511e-1 -2.520360e-1 -9.037800e-1
 -5.803837e-4 4.303591e-4 -6.469217e-4 -1.196683e-3 -2.505501e-1 -9.041030e-1 2.388742e-1 5.141623e-2
4.611706e9 1.670079e-1 -1.642086e-1 -2.259938e-1 -9.147735e-1 -2.481230e-4 1.407240e-3 -5.903514e-4 4.849480e-4
 -2.244208e-1 -9.147218e-1 2.084692e-1 6.493976e-2 -6.864800e-4 3.495683e-4 -6.746596e-4 -1.190972e-3
 -2.418699e-4 1.401381e-3 -7.043522e-4 4.092233e-4 1.878932e-1 -1.804082e-1 -2.592076e-1 -9.013802e-1
 -5.822024e-4 4.352202e-4 -6.780238e-4 -1.193743e-3 -2.577137e-1 -9.017363e-1 2.401152e-1 4.969021e-2
4.631538e9 1.664962e-1 -1.661223e-1 -2.331410e-1 -9.126117e-1 -2.484959e-4 1.423213e-3 -5.923019e-4 4.903360e-4
 -2.315571e-1 -9.126010e-1 2.097589e-1 6.350814e-2 -6.917286e-4 3.541117e-4 -7.058441e-4 -1.187763e-3
 -2.421835e-4 1.417097e-3 -7.088275e-4 4.149711e-4 1.872031e-1 -1.825584e-1 -2.663582e-1 -8.989227e-1
 -5.841164e-4 4.401114e-4 -7.092818e-4 -1.190049e-3 -2.648569e-1 -8.993124e-1 2.413379e-1 4.794301e-2
4.651371e9 1.659650e-1 -1.680308e-1 -2.402684e-1 -9.103920e-1 -2.488500e-4 1.439266e-3 -5.943835e-4 4.958041e-4
 -2.386755e-1 -9.104229e-1 2.110325e-1 6.205596e-2 -6.971758e-4 3.587622e-4 -7.372195e-4 -1.183818e-3
 -2.424955e-4 1.432890e-3 -7.134769e-4 4.208066e-4 1.864893e-1 -1.847012e-1 -2.734873e-1 -8.964079e-1
 -5.861286e-4 4.450353e-4 -7.406733e-4 -1.185598e-3 -2.719793e-1 -8.968315e-1 2.425418e-1 4.617480e-2
4.671204e9 1.654142e-1 -1.699340e-1 -2.473754e-1 -9.081147e-1 -2.491889e-4 1.455401e-3 -5.965962e-4 5.013599e-4
 -2.457752e-1 -9.081873e-1 2.122899e-1 6.058351e-2 -7.028231e-4 3.635296e-4 -7.687673e-4 -1.179128e-3
 -2.428093e-4 1.448767e-3 -7.183042e-4 4.267394e-4 1.857518e-1 -1.868363e-1 -2.805945e-1 -8.938359e-1
 -5.882421e-4 4.499951e-4 -7.721759e-4 -1.180389e-3 -2.790803e-1 -8.942936e-1 2.437266e-1 4.438574e-2
4.691037e9 1.648440e-1 -1.718316e-1 -2.544614e-1 -9.057799e-1 -2.495162e-4 1.471620e-3 -5.989398e-4 5.070113e-4
 -2.528559e-1 -9.058945e-1 2.135306e-1 5.909105e-2 -7.086715e-4 3.684232e-4 -8.004687e-4 -1.173688e-3
 -2.431282e-4 1.464729e-3 -7.233126e-4 4.327791e-4 1.849908e-1 -1.889635e-1 -2.876794e-1 -8.912068e-1
 -5.904604e-4 4.549940e-4 -8.037679e-4 -1.174421e-3 -2.861595e-1 -8.916991e-1 2.448918e-1 4.257599e-2
4.710870e9 1.642544e-1 -1.737235e-1 -2.615259e-1 -9.033881e-1 -2.498355e-4 1.487927e-3 -6.014138e-4 5.127661e-4
 -2.599170e-1 -9.035446e-1 2.147543e-1 5.757887e-2 -7.147218e-4 3.734529e-4 -8.323048e-4 -1.167491e-3
 -2.434554e-4 1.480783e-3 -7.285049e-4 4.389362e-4 1.842063e-1 -1.910823e-1 -2.947416e-1 -8.885208e-1
 -5.927868e-4 4.600352e-4 -8.354279e-4 -1.167696e-3 -2.932166e-1 -8.890480e-1 2.460371e-1 4.074574e-2
4.730702e9 1.636452e-1 -1.756095e-1 -2.685684e-1 -9.009394e-1 -2.501504e-4 1.504323e-3 -6.040172e-4 5.186319e-4
 -2.669579e-1 -9.011377e-1 2.159608e-1 5.604725e-2 -7.209744e-4 3.786284e-4 -8.642569e-4 -1.160531e-3
 -2.437934e-4 1.496933e-3 -7.338836e-4 4.452209e-4 1.833984e-1 -1.931926e-1 -3.017805e-1 -8.857782e-1
 -5.952249e-4 4.651224e-4 -8.671353e-4 -1.160215e-3 -3.002511e-1 -8.863405e-1 2.471621e-1 3.889517e-2
4.750535e9 1.630166e-1 -1.774894e-1 -2.755884e-1 -8.984342e-1 -2.504641e-4 1.520813e-3 -6.067490e-4 5.246164e-4
 -2.739781e-1 -8.986740e-1 2.171497e-1 5.449650e-2 -7.274295e-4 3.839594e-4 -8.963058e-4 -1.152805e-3
 -2.441446e-4 1.513183e-3 -7.394505e-4 4.516441e-4 1.825673e-1 -1.952940e-1 -3.087958e-1 -8.829791e-1
 -5.977785e-4 4.702594e-4 -8.988700e-4 -1.151982e-3 -3.072626e-1 -8.835768e-1 2.482664e-1 3.702447e-2
4.770368e9 1.623685e-1 -1.793630e-1 -2.825855e-1 -8.958729e-1 -2.507800e-4 1.537398e-3 -6.096076e-4 5.307272e-4
 -2.809771e-1 -8.961536e-1 2.183207e-1 5.292691e-2 -7.340869e-4 3.894560e-4 -9.284326e-4 -1.144308e-3
 -2.445111e-4 1.529538e-3 -7.452072e-4 4.582165e-4 1.817130e-1 -1.973861e-1 -3.157870e-1 -8.801237e-1
 -6.004514e-4 4.754504e-4 -9.306129e-4 -1.143000e-3 -3.142507e-1 -8.807571e-1 2.493496e-1 3.513384e-2
4.790201e9 1.617008e-1 -1.812300e-1 -2.895591e-1 -8.932557e-1 -2.511014e-4 1.554082e-3 -6.125915e-4 5.369719e-4
 -2.879544e-1 -8.935768e-1 2.194735e-1 5.133877e-2 -7.409461e-4 3.951279e-4 -9.606184e-4 -1.135037e-3
 -2.448949e-4 1.546004e-3 -7.511547e-4 4.649493e-4 1.808356e-1 -1.994687e-1 -3.227538e-1 -8.772122e-1
 -6.032476e-4 4.806999e-4 -9.623455e-4 -1.133274e-3 -3.212148e-1 -8.778815e-1 2.504114e-1 3.322349e-2
4.810033e9 1.610137e-1 -1.830902e-1 -2.965089e-1 -8.905830e-1 -2.514315e-4 1.570870e-3 -6.156987e-4 5.433577e-4
 -2.949094e-1 -8.909436e-1 2.206080e-1 4.973239e-2 -7.480061e-4 4.009850e-4 -9.928443e-4 -1.124990e-3
 -2.452973e-4 1.562584e-3 -7.572935e-4 4.718537e-4 1.799354e-1 -2.015414e-1 -3.296957e-1 -8.742449e-1
 -6.061709e-4 4.860126e-4 -9.940505e-4 -1.122809e-3 -3.281547e-1 -8.749503e-1 2.514513e-1 3.129365e-2
4.829866e9 1.603070e-1 -1.849434e-1 -3.034344e-1 -8.878552e-1 -2.517732e-4 1.587763e-3 -6.189269e-4 5.498921e-4
 -3.018416e-1 -8.882544e-1 2.217239e-1 4.810807e-2 -7.552658e-4 4.070374e-4 -1.025092e-3 -1.114163e-3
 -2.457197e-4 1.579284e-3 -7.636236e-4 4.789411e-4 1.790123e-1 -2.036039e-1 -3.366122e-1 -8.712218e-1
 -6.092255e-4 4.913936e-4 -1.025711e-3 -1.111612e-3 -3.350698e-1 -8.719636e-1 2.524691e-1 2.934453e-2
4.849699e9 1.595807e-1 -1.867893e-1 -3.103351e-1 -8.850726e-1 -2.521296e-4 1.604767e-3 -6.222737e-4 5.565822e-4
 -3.087504e-1 -8.855093e-1 2.228208e-1 4.646610e-2 -7.627237e-4 4.132948e-4 -1.057342e-3 -1.102557e-3
 -2.461631e-4 1.596109e-3 -7.701445e-4 4.862229e-4 1.780664e-1 -2.056560e-1 -3.435030e-1 -8.681433e-1
 -6.124154e-4 4.968484e-4 -1.057313e-3 -1.099689e-3 -3.419598e-1 -8.689217e-1 2.534642e-1 2.737638e-2
4.869532e9 1.588349e-1 -1.886277e-1 -3.172108e-1 -8.822355e-1 -2.525034e-4 1.621884e-3 -6.257365e-4 5.634352e-4
 -3.156354e-1 -8.827085e-1 2.238988e-1 4.480677e-2 -7.703781e-4 4.197672e-4 -1.089576e-3 -1.090170e-3
 -2.466283e-4 1.613062e-3 -7.768553e-4 4.937105e-4 1.770980e-1 -2.076973e-1 -3.503677e-1 -8.650095e-1
 -6.157447e-4 5.023829e-4 -1.088840e-3 -1.087049e-3 -3.488243e-1 -8.658246e-1 2.544364e-1 2.538942e-2
4.889365e9 1.580694e-1 -1.904582e-1 -3.240610e-1 -8.793443e-1 -2.528975e-4 1.639119e-3 -6.293123e-4 5.704579e-4
 -3.224960e-1 -8.798524e-1 2.249574e-1 4.313039e-2 -7.782267e-4 4.264643e-4 -1.121776e-3 -1.077002e-3
 -2.471159e-4 1.630149e-3 -7.837544e-4 5.014156e-4 1.761072e-1 -2.097275e-1 -3.572057e-1 -8.618206e-1
 -6.192174e-4 5.080034e-4 -1.120281e-3 -1.073697e-3 -3.556627e-1 -8.626727e-1 2.553852e-1 2.338392e-2
4.909197e9 1.572843e-1 -1.922806e-1 -3.308853e-1 -8.763994e-1 -2.533146e-4 1.656476e-3 -6.329981e-4 5.776572e-4
 -3.293317e-1 -8.769413e-1 2.259966e-1 4.143724e-2 -7.862672e-4 4.333961e-4 -1.153924e-3 -1.063053e-3
 -2.476263e-4 1.647374e-3 -7.908399e-4 5.093496e-4 1.750940e-1 -2.117462e-1 -3.640168e-1 -8.585769e-1
 -6.228376e-4 5.137167e-4 -1.151623e-3 -1.059643e-3 -3.624748e-1 -8.594662e-1 2.563102e-1 2.136014e-2
4.929030e9 1.564795e-1 -1.940946e-1 -3.376835e-1 -8.734010e-1 -2.537571e-4 1.673959e-3 -6.367905e-4 5.850398e-4
 -3.361420e-1 -8.739752e-1 2.270161e-1 3.972759e-2 -7.944969e-4 4.405721e-4 -1.186003e-3 -1.048325e-3
 -2.481597e-4 1.664741e-3 -7.981093e-4 5.175239e-4 1.740585e-1 -2.137533e-1 -3.708004e-1 -8.552786e-1
 -6.266092e-4 5.195297e-4 -1.182854e-3 -1.044894e-3 -3.692600e-1 -8.562051e-1 2.572112e-1 1.931835e-2
4.948863e9 1.556550e-1 -1.958999e-1 -3.444553e-1 -8.703496e-1 -2.542276e-4 1.691573e-3 -6.406860e-4 5.926120e-4
 -3.429264e-1 -8.709547e-1 2.280158e-1 3.800172e-2 -8.029127e-4 4.480021e-4 -1.217994e-3 -1.032820e-3
 -2.487162e-4 1.682254e-3 -8.055597e-4 5.259498e-4 1.730010e-1 -2.157483e-1 -3.775562e-1 -8.519259e-1
 -6.305359e-4 5.254503e-4 -1.213966e-3 -1.029457e-3 -3.760180e-1 -8.528899e-1 2.580876e-1 1.725882e-2
4.968696e9 1.548108e-1 -1.976960e-1 -3.512002e-1 -8.672454e-1 -2.547285e-4 1.709321e-3 -6.446812e-4 6.003803e-4
 -3.496844e-1 -8.678799e-1 2.289955e-1 3.625989e-2 -8.115115e-4 4.556956e-4 -1.249881e-3 -1.016538e-3
 -2.492960e-4 1.699916e-3 -8.131877e-4 5.346387e-4 1.719216e-1 -2.177309e-1 -3.842837e-1 -8.485190e-1
 -6.346214e-4 5.314863e-4 -1.244950e-3 -1.013342e-3 -3.827483e-1 -8.495206e-1 2.589392e-1 1.518184e-2
4.988528e9 1.539470e-1 -1.994827e-1 -3.579181e-1 -8.640889e-1 -2.552619e-4 1.727209e-3 -6.487721e-4 6.083507e-4
 -3.564155e-1 -8.647512e-1 2.299551e-1 3.450237e-2 -8.202896e-4 4.636621e-4 -1.281647e-3 -9.994843e-4
 -2.498988e-4 1.717732e-3 -8.209895e-4 5.436017e-4 1.708203e-1 -2.197009e-1 -3.909827e-1 -8.450581e-1
 -6.388691e-4 5.376462e-4 -1.275798e-3 -9.965545e-4 -3.894505e-1 -8.460974e-1 2.597656e-1 1.308772e-2
5.008361e9 1.530634e-1 -2.012597e-1 -3.646087e-1 -8.608802e-1 -2.558301e-4 1.745240e-3 -6.529548e-4 6.165294e-4
 -3.631193e-1 -8.615690e-1 2.308944e-1 3.272939e-2 -8.292432e-4 4.719110e-4 -1.313275e-3 -9.816603e-4
 -2.505246e-4 1.735706e-3 -8.289608e-4 5.528496e-4 1.696974e-1 -2.216579e-1 -3.976525e-1 -8.415435e-1
 -6.432821e-4 5.439391e-4 -1.306504e-3 -9.791027e-4 -3.961243e-1 -8.426207e-1 2.605663e-1 1.097675e-2
5.028194e9 1.521602e-1 -2.030264e-1 -3.712716e-1 -8.576198e-1 -2.564351e-4 1.763420e-3 -6.572254e-4 6.249220e-4
 -3.697954e-1 -8.583335e-1 2.318133e-1 3.094120e-2 -8.383685e-4 4.804514e-4 -1.344750e-3 -9.630700e-4
 -2.511734e-4 1.753839e-3 -8.370970e-4 5.623933e-4 1.685529e-1 -2.236017e-1 -4.042929e-1 -8.379755e-1
 -6.478634e-4 5.503742e-4 -1.337062e-3 -9.609930e-4 -4.027692e-1 -8.390907e-1 2.613411e-1 8.849255e-3
5.048027e9 1.512373e-1 -2.047826e-1 -3.779068e-1 -8.543079e-1 -2.570790e-4 1.781754e-3 -6.615797e-4 6.335344e-4
 -3.764432e-1 -8.550451e-1 2.327116e-1 2.913803e-2 -8.476609e-4 4.892926e-4 -1.376057e-3 -9.437174e-4
 -2.518452e-4 1.772136e-3 -8.453930e-4 5.722432e-4 1.673870e-1 -2.255318e-1 -4.109035e-1 -8.343542e-1
 -6.526155e-4 5.569614e-4 -1.367469e-3 -9.422316e-4 -4.093847e-1 -8.355075e-1 2.620895e-1 6.705559e-3
5.067860e9 1.502949e-1 -2.065278e-1 -3.845139e-1 -8.509448e-1 -2.577637e-4 1.800245e-3 -6.660135e-4 6.423718e-4
 -3.830625e-1 -8.517042e-1 2.335892e-1 2.732008e-2 -8.571161e-4 4.984434e-4 -1.407179e-3 -9.236069e-4
 -2.525399e-4 1.790598e-3 -8.538435e-4 5.824098e-4 1.661999e-1 -2.274480e-1 -4.174838e-1 -8.306799e-1
 -6.575407e-4 5.637110e-4 -1.397720e-3 -9.228238e-4 -4.159706e-1 -8.318715e-1 2.628112e-1 4.545996e-3
5.087692e9 1.493329e-1 -2.082616e-1 -3.910927e-1 -8.475307e-1 -2.584910e-4 1.818899e-3 -6.705224e-4 6.514396e-4
 -3.896527e-1 -8.483111e-1 2.344459e-1 2.548757e-2 -8.667293e-4 5.079129e-4 -1.438103e-3 -9.027431e-4
 -2.532576e-4 1.809229e-3 -8.624428e-4 5.929030e-4 1.649918e-1 -2.293499e-1 -4.240334e-1 -8.269528e-1
 -6.626408e-4 5.706336e-4 -1.427814e-3 -9.027741e-4 -4.225264e-1 -8.281828e-1 2.635059e-1 2.370910e-3
5.107525e9 1.483514e-1 -2.099836e-1 -3.976430e-1 -8.440660e-1 -2.592626e-4 1.837721e-3 -6.751022e-4 6.607430e-4
 -3.962136e-1 -8.448663e-1 2.352817e-1 2.364069e-2 -8.764957e-4 5.177096e-4 -1.468814e-3 -8.811311e-4
 -2.539988e-4 1.828032e-3 -8.711849e-4 6.037327e-4 1.637627e-1 -2.312373e-1 -4.305520e-1 -8.231732e-1
 -6.679171e-4 5.777403e-4 -1.457747e-3 -8.820862e-4 -4.290516e-1 -8.244417e-1 2.641732e-1 1.806541e-4
5.127358e9 1.473506e-1 -2.116934e-1 -4.041647e-1 -8.405508e-1 -2.600803e-4 1.856715e-3 -6.797484e-4 6.702869e-4
 -4.027447e-1 -8.413700e-1 2.360964e-1 2.177963e-2 -8.864100e-4 5.278422e-4 -1.499300e-3 -8.587761e-4
 -2.547639e-4 1.847008e-3 -8.800635e-4 6.149084e-4 1.625129e-1 -2.331098e-1 -4.370392e-1 -8.193414e-1
 -6.733706e-4 5.850426e-4 -1.487520e-3 -8.607628e-4 -4.355460e-1 -8.206485e-1 2.648128e-1 -2.024408e-3
5.147191e9 1.463306e-1 -2.133905e-1 -4.106574e-1 -8.369854e-1 -2.609456e-4 1.875888e-3 -6.844567e-4 6.800760e-4
 -4.092456e-1 -8.378227e-1 2.368898e-1 1.990457e-2 -8.964671e-4 5.383191e-4 -1.529546e-3 -8.356836e-4
 -2.555535e-4 1.866159e-3 -8.890722e-4 6.264394e-4 1.612426e-1 -2.349671e-1 -4.434945e-1 -8.154575e-1
 -6.790016e-4 5.925520e-4 -1.517132e-3 -8.388054e-4 -4.420091e-1 -8.168034e-1 2.654243e-1 -4.243905e-3
5.167023e9 1.452914e-1 -2.150745e-1 -4.171210e-1 -8.333700e-1 -2.618601e-4 1.895243e-3 -6.892225e-4 6.901150e-4
 -4.157162e-1 -8.342247e-1 2.376618e-1 1.801566e-2 -9.066615e-4 5.491486e-4 -1.559541e-3 -8.118592e-4
 -2.563686e-4 1.885488e-3 -8.982044e-4 6.383346e-4 1.599518e-1 -2.368089e-1 -4.499176e-1 -8.115219e-1
 -6.848101e-4 6.002809e-4 -1.546581e-3 -8.162145e-4 -4.484405e-1 -8.129067e-1 2.660073e-1 -6.477457e-3
5.186856e9 1.442333e-1 -2.167450e-1 -4.235554e-1 -8.297047e-1 -2.628254e-4 1.914786e-3 -6.940416e-4 7.004084e-4
 -4.221560e-1 -8.305764e-1 2.384122e-1 1.611307e-2 -9.169877e-4 5.603387e-4 -1.589273e-3 -7.873089e-4
 -2.572105e-4 1.904996e-3 -9.074531e-4 6.506027e-4 1.586408e-1 -2.386348e-1 -4.563082e-1 -8.075348e-1
 -6.907952e-4 6.082414e-4 -1.575869e-3 -7.929893e-4 -4.548399e-1 -8.089586e-1 2.665616e-1 -8.724672e-3
5.206689e9 1.431565e-1 -2.184013e-1 -4.299603e-1 -8.259898e-1 -2.638428e-4 1.934522e-3 -6.989095e-4 7.109606e-4
 -4.285648e-1 -8.268783e-1 2.391409e-1 1.419695e-2 -9.274399e-4 5.718974e-4 -1.618730e-3 -7.620384e-4
 -2.580806e-4 1.924686e-3 -9.168114e-4 6.632521e-4 1.573098e-1 -2.404446e-1 -4.626658e-1 -8.034965e-1
 -6.969555e-4 6.164462e-4 -1.604995e-3 -7.691279e-4 -4.612068e-1 -8.049594e-1 2.670869e-1 -1.098515e-2
5.226522e9 1.420611e-1 -2.200433e-1 -4.363355e-1 -8.222253e-1 -2.649139e-4 1.954456e-3 -7.038219e-4 7.217756e-4
 -4.349423e-1 -8.231306e-1 2.398477e-1 1.226744e-2 -9.380124e-4 5.838326e-4 -1.647901e-3 -7.360538e-4
 -2.589809e-4 1.944560e-3 -9.262724e-4 6.762911e-4 1.559589e-1 -2.422379e-1 -4.689901e-1 -7.994072e-1
 -7.032891e-4 6.249081e-4 -1.633960e-3 -7.446269e-4 -4.675409e-1 -8.009094e-1 2.675827e-1 -1.325849e-2
5.246355e9 1.409473e-1 -2.216702e-1 -4.426808e-1 -8.184114e-1 -2.660399e-4 1.974595e-3 -7.087744e-4 7.328577e-4
 -4.412882e-1 -8.193337e-1 2.405324e-1 1.032467e-2 -9.486991e-4 5.961519e-4 -1.676777e-3 -7.093610e-4
 -2.599135e-4 1.964618e-3 -9.358288e-4 6.897274e-4 1.545885e-1 -2.440144e-1 -4.752806e-1 -7.952672e-1
 -7.097932e-4 6.336400e-4 -1.662763e-3 -7.194818e-4 -4.738418e-1 -7.968088e-1 2.680489e-1 -1.554427e-2
5.266187e9 1.398155e-1 -2.232818e-1 -4.489960e-1 -8.145482e-1 -2.672224e-4 1.994942e-3 -7.137627e-4 7.442107e-4
 -4.476023e-1 -8.154881e-1 2.411948e-1 8.368785e-3 -9.594942e-4 6.088628e-4 -1.705348e-3 -6.819658e-4
 -2.608809e-4 1.984863e-3 -9.454735e-4 7.035688e-4 1.531986e-1 -2.457738e-1 -4.815371e-1 -7.910767e-1
 -7.164646e-4 6.426549e-4 -1.691405e-3 -6.936867e-4 -4.801092e-1 -7.926580e-1 2.684851e-1 -1.784206e-2
5.286020e9 1.386658e-1 -2.248776e-1 -4.552809e-1 -8.106358e-1 -2.684625e-4 2.015503e-3 -7.187828e-4 7.558386e-4
 -4.538845e-1 -8.115939e-1 2.418348e-1 6.399904e-3 -9.703916e-4 6.219727e-4 -1.733605e-3 -6.538741e-4
 -2.618863e-4 2.005298e-3 -9.551994e-4 7.178226e-4 1.517894e-1 -2.475157e-1 -4.877592e-1 -7.868362e-1
 -7.232992e-4 6.519659e-4 -1.719885e-3 -6.672346e-4 -4.863426e-1 -7.884571e-1 2.688910e-1 -2.015143e-2
5.305853e9 1.374987e-1 -2.264571e-1 -4.615352e-1 -8.066744e-1 -2.697617e-4 2.036284e-3 -7.238305e-4 7.677451e-4
 -4.601345e-1 -8.076516e-1 2.424521e-1 4.418157e-3 -9.813851e-4 6.354887e-4 -1.761539e-3 -6.250916e-4
 -2.629329e-4 2.025924e-3 -9.649992e-4 7.324961e-4 1.503613e-1 -2.492398e-1 -4.939464e-1 -7.825457e-1
 -7.302921e-4 6.615860e-4 -1.748201e-3 -6.401169e-4 -4.925418e-1 -7.842066e-1 2.692664e-1 -2.247195e-2
5.325686e9 1.363144e-1 -2.280199e-1 -4.677588e-1 -8.026639e-1 -2.711212e-4 2.057290e-3 -7.289018e-4 7.799339e-4
 -4.663520e-1 -8.036616e-1 2.430464e-1 2.423670e-3 -9.924686e-4 6.494181e-4 -1.789143e-3 -5.956236e-4
 -2.640245e-4 2.046744e-3 -9.748658e-4 7.475963e-4 1.489144e-1 -2.509459e-1 -5.000986e-1 -7.782056e-1
 -7.374379e-4 6.715283e-4 -1.776352e-3 -6.123242e-4 -4.987064e-1 -7.799066e-1 2.696108e-1 -2.480315e-2
5.345518e9 1.351132e-1 -2.295655e-1 -4.739512e-1 -7.986044e-1 -2.725424e-4 2.078527e-3 -7.339929e-4 7.924088e-4
 -4.725371e-1 -7.996240e-1 2.436175e-1 4.165737e-4 -1.003636e-3 6.637677e-4 -1.816408e-3 -5.654755e-4
 -2.651653e-4 2.067759e-3 -9.847923e-4 7.631300e-4 1.474489e-1 -2.526335e-1 -5.062152e-1 -7.738162e-1
 -7.447303e-4 6.818056e-4 -1.804335e-3 -5.838455e-4 -5.048360e-1 -7.755574e-1 2.699242e-1 -2.714459e-2
5.365351e9 1.338956e-1 -2.310937e-1 -4.801124e-1 -7.944959e-1 -2.740267e-4 2.100000e-3 -7.390998e-4 8.051733e-4
 -4.786894e-1 -7.955392e-1 2.441652e-1 -1.603001e-3 -1.014881e-3 6.785444e-4 -1.843329e-3 -5.346522e-4
 -2.663599e-4 2.088975e-3 -9.947715e-4 7.791040e-4 1.459652e-1 -2.543024e-1 -5.122960e-1 -7.693777e-1
 -7.521625e-4 6.924307e-4 -1.832146e-3 -5.546691e-4 -5.109303e-1 -7.711594e-1 2.702062e-1 -2.949580e-2
5.385184e9 1.326619e-1 -2.326040e-1 -4.862420e-1 -7.903386e-1 -2.755754e-4 2.121715e-3 -7.442191e-4 8.182310e-4
 -4.848088e-1 -7.914075e-1 2.446892e-1 -3.634917e-3 -1.026197e-3 6.937550e-4 -1.869898e-3 -5.031582e-4
 -2.676131e-4 2.110392e-3 -1.004797e-3 7.955249e-4 1.444634e-1 -2.559522e-1 -5.183406e-1 -7.648905e-1
 -7.597268e-4 7.034159e-4 -1.859781e-3 -5.247821e-4 -5.169889e-1 -7.667129e-1 2.704566e-1 -3.185631e-2
5.405017e9 1.314126e-1 -2.340959e-1 -4.923396e-1 -7.861324e-1 -2.771899e-4 2.143677e-3 -7.493471e-4 8.315856e-4
 -4.908953e-1 -7.872291e-1 2.451891e-1 -5.679029e-3 -1.037578e-3 7.094062e-4 -1.896109e-3 -4.709977e-4
 -2.689304e-4 2.132016e-3 -1.014861e-3 8.123993e-4 1.429438e-1 -2.575826e-1 -5.243487e-1 -7.603548e-1
 -7.674148e-4 7.147736e-4 -1.887233e-3 -4.941707e-4 -5.230116e-1 -7.622181e-1 2.706751e-1 -3.422564e-2
5.424849e9 1.301481e-1 -2.355693e-1 -4.984050e-1 -7.818773e-1 -2.788716e-4 2.165893e-3 -7.544805e-4 8.452406e-4
 -4.969487e-1 -7.830042e-1 2.456647e-1 -7.735182e-3 -1.049018e-3 7.255044e-4 -1.921957e-3 -4.381746e-4
 -2.703174e-4 2.153850e-3 -1.024958e-3 8.297338e-4 1.414067e-1 -2.591934e-1 -5.303199e-1 -7.557709e-1
 -7.752177e-4 7.265154e-4 -1.914495e-3 -4.628203e-4 -5.289980e-1 -7.576753e-1 2.708615e-1 -3.660330e-2
5.444682e9 1.288687e-1 -2.370237e-1 -5.044378e-1 -7.775734e-1 -2.806219e-4 2.188368e-3 -7.596159e-4 8.591999e-4
 -5.029688e-1 -7.787332e-1 2.461156e-1 -9.803211e-3 -1.060511e-3 7.420564e-4 -1.947437e-3 -4.046922e-4
 -2.717802e-4 2.175899e-3 -1.035080e-3 8.475349e-4 1.398523e-1 -2.607841e-1 -5.362540e-1 -7.511390e-1
 -7.831256e-4 7.386528e-4 -1.941558e-3 -4.307156e-4 -5.349478e-1 -7.530848e-1 2.710156e-1 -3.898881e-2
5.464515e9 1.275751e-1 -2.384588e-1 -5.104376e-1 -7.732207e-1 -2.824423e-4 2.211109e-3 -7.647503e-4 8.734670e-4
 -5.089556e-1 -7.744161e-1 2.465416e-1 -1.188294e-2 -1.072051e-3 7.590684e-4 -1.972545e-3 -3.705533e-4
 -2.733249e-4 2.198168e-3 -1.045222e-3 8.658092e-4 1.382809e-1 -2.623545e-1 -5.421506e-1 -7.464596e-1
 -7.911284e-4 7.511968e-4 -1.968412e-3 -3.978409e-4 -5.408607e-1 -7.484469e-1 2.711372e-1 -4.138167e-2
5.484348e9 1.262677e-1 -2.398744e-1 -5.164040e-1 -7.688191e-1 -2.843344e-4 2.234121e-3 -7.698807e-4 8.880459e-4
 -5.149089e-1 -7.700531e-1 2.469422e-1 -1.397417e-2 -1.083631e-3 7.765470e-4 -1.997274e-3 -3.357600e-4
 -2.749584e-4 2.220663e-3 -1.055378e-3 8.845634e-4 1.366929e-1 -2.639043e-1 -5.480093e-1 -7.417327e-1
 -7.992153e-4 7.641577e-4 -1.995043e-3 -3.641800e-4 -5.467364e-1 -7.437620e-1 2.712261e-1 -4.378138e-2
5.504181e9 1.249470e-1 -2.412703e-1 -5.223367e-1 -7.643688e-1 -2.862998e-4 2.257411e-3 -7.750042e-4 9.029405e-4
 -5.208287e-1 -7.656444e-1 2.473170e-1 -1.607669e-2 -1.095246e-3 7.944987e-4 -2.021622e-3 -3.003140e-4
 -2.766872e-4 2.243390e-3 -1.065540e-3 9.038042e-4 1.350885e-1 -2.654331e-1 -5.538299e-1 -7.369589e-1
 -8.073750e-4 7.775454e-4 -2.021439e-3 -3.297165e-4 -5.525746e-1 -7.390302e-1 2.712820e-1 -4.618743e-2
5.524013e9 1.236134e-1 -2.426461e-1 -5.282351e-1 -7.598696e-1 -2.883401e-4 2.280985e-3 -7.801182e-4 9.181548e-4
 -5.267147e-1 -7.611900e-1 2.476658e-1 -1.819027e-2 -1.106889e-3 8.129297e-4 -2.045583e-3 -2.642164e-4
 -2.785184e-4 2.266357e-3 -1.075702e-3 9.235386e-4 1.334680e-1 -2.669407e-1 -5.596121e-1 -7.321382e-1
 -8.155956e-4 7.913691e-4 -2.047584e-3 -2.944340e-4 -5.583749e-1 -7.342520e-1 2.713049e-1 -4.859932e-2
5.543846e9 1.222676e-1 -2.440016e-1 -5.340988e-1 -7.553218e-1 -2.904569e-4 2.304849e-3 -7.852199e-4 9.336931e-4
 -5.325669e-1 -7.566902e-1 2.479881e-1 -2.031466e-2 -1.118555e-3 8.318466e-4 -2.069155e-3 -2.274675e-4
 -2.804591e-4 2.289570e-3 -1.085860e-3 9.437736e-4 1.318317e-1 -2.684267e-1 -5.653555e-1 -7.272711e-1
 -8.238649e-4 8.056375e-4 -2.073460e-3 -2.583161e-4 -5.641372e-1 -7.294275e-1 2.712945e-1 -5.101652e-2
5.563679e9 1.209100e-1 -2.453368e-1 -5.399274e-1 -7.507252e-1 -2.926521e-4 2.329011e-3 -7.903071e-4 9.495598e-4
 -5.383852e-1 -7.521449e-1 2.482835e-1 -2.244958e-2 -1.130238e-3 8.512559e-4 -2.092334e-3 -1.900669e-4
 -2.825165e-4 2.313040e-3 -1.096005e-3 9.645167e-4 1.301800e-1 -2.698908e-1 -5.710599e-1 -7.223577e-1
 -8.321703e-4 8.203584e-4 -2.099048e-3 -2.213468e-4 -5.698611e-1 -7.245572e-1 2.712506e-1 -5.343852e-2
5.583512e9 1.195411e-1 -2.466515e-1 -5.457204e-1 -7.460800e-1 -2.949275e-4 2.353476e-3 -7.953773e-4 9.657595e-4
 -5.441693e-1 -7.475543e-1 2.485517e-1 -2.459474e-2 -1.141932e-3 8.711641e-4 -2.115115e-3 -1.520136e-4
 -2.846976e-4 2.336775e-3 -1.106134e-3 9.857754e-4 1.285132e-1 -2.713328e-1 -5.767250e-1 -7.173984e-1
 -8.404991e-4 8.355389e-4 -2.124327e-3 -1.835105e-4 -5.755464e-1 -7.196412e-1 2.711733e-1 -5.586480e-2
5.603344e9 1.181615e-1 -2.479456e-1 -5.514771e-1 -7.413862e-1 -2.972849e-4 2.378252e-3 -8.004282e-4 9.822971e-4
 -5.499192e-1 -7.429182e-1 2.487922e-1 -2.674981e-2 -1.153631e-3 8.915779e-4 -2.137495e-3 -1.133057e-4
 -2.870096e-4 2.360785e-3 -1.116239e-3 1.007557e-3 1.268317e-1 -2.727524e-1 -5.823504e-1 -7.123935e-1
 -8.488380e-4 8.511855e-4 -2.149273e-3 -1.447925e-4 -5.811927e-1 -7.146798e-1 2.710622e-1 -5.829483e-2
5.623177e9 1.167717e-1 -2.492190e-1 -5.571971e-1 -7.366439e-1 -2.997263e-4 2.403347e-3 -8.054578e-4 9.991776e-4
 -5.556347e-1 -7.382369e-1 2.490045e-1 -2.891444e-2 -1.165331e-3 9.125040e-4 -2.159470e-3 -7.394074e-5
 -2.894596e-4 2.385081e-3 -1.126314e-3 1.029871e-3 1.251357e-1 -2.741493e-1 -5.879359e-1 -7.073433e-1
 -8.571740e-4 8.673039e-4 -2.173863e-3 -1.051787e-4 -5.868000e-1 -7.096735e-1 2.709174e-1 -6.072809e-2
5.643010e9 1.153721e-1 -2.504716e-1 -5.628799e-1 -7.318533e-1 -3.022538e-4 2.428767e-3 -8.104640e-4 1.016406e-3
 -5.613155e-1 -7.335101e-1 2.491884e-1 -3.108826e-2 -1.177024e-3 9.339493e-4 -2.181037e-3 -3.391521e-5
 -2.920542e-4 2.409675e-3 -1.136354e-3 1.052725e-3 1.234258e-1 -2.755232e-1 -5.934812e-1 -7.022479e-1
 -8.654936e-4 8.838989e-4 -2.198070e-3 -6.465605e-5 -5.923678e-1 -7.046223e-1 2.707386e-1 -6.316406e-2
5.662843e9 1.139634e-1 -2.517035e-1 -5.685247e-1 -7.270144e-1 -3.048694e-4 2.454520e-3 -8.154448e-4 1.033989e-3
 -5.669615e-1 -7.287380e-1 2.493434e-1 -3.327085e-2 -1.188707e-3 9.559208e-4 -2.202191e-3 6.775005e-6
 -2.948000e-4 2.434580e-3 -1.146352e-3 1.076128e-3 1.217021e-1 -2.768738e-1 -5.989861e-1 -6.971078e-1
 -8.737837e-4 9.009745e-4 -2.221865e-3 -2.321291e-5 -5.978959e-1 -6.995267e-1 2.705258e-1 -6.560220e-2
5.682676e9 1.125459e-1 -2.529146e-1 -5.741311e-1 -7.221273e-1 -3.075752e-4 2.480614e-3 -8.203982e-4 1.051932e-3
 -5.725724e-1 -7.239204e-1 2.494691e-1 -3.546179e-2 -1.200372e-3 9.784258e-4 -2.222927e-3 4.813488e-5
 -2.977032e-4 2.459810e-3 -1.156302e-3 1.100088e-3 1.199652e-1 -2.782009e-1 -6.044502e-1 -6.919231e-1
 -8.820310e-4 9.185341e-4 -2.245220e-3 1.916107e-5 -6.033841e-1 -6.943869e-1 2.702790e-1 -6.804199e-2
5.702508e9 1.111202e-1 -2.541051e-1 -5.796985e-1 -7.171924e-1 -3.103735e-4 2.507057e-3 -8.253222e-4 1.070242e-3
 -5.781479e-1 -7.190573e-1 2.495650e-1 -3.766059e-2 -1.212016e-3 1.001472e-3 -2.243242e-3 9.017020e-5
 -3.007695e-4 2.485377e-3 -1.166197e-3 1.124617e-3 1.182154e-1 -2.795042e-1 -6.098733e-1 -6.866942e-1
 -8.902226e-4 9.365802e-4 -2.268103e-3 6.247467e-5 -6.088322e-1 -6.892031e-1 2.699980e-1 -7.048290e-2
5.722341e9 1.096867e-1 -2.552749e-1 -5.852262e-1 -7.122097e-1 -3.132664e-4 2.533858e-3 -8.302151e-4 1.088924e-3
 -5.836878e-1 -7.141486e-1 2.496309e-1 -3.986678e-2 -1.223632e-3 1.025066e-3 -2.263130e-3 1.328875e-4
 -3.040043e-4 2.511299e-3 -1.176030e-3 1.149722e-3 1.164532e-1 -2.807835e-1 -6.152551e-1 -6.814214e-1
 -8.983457e-4 9.551147e-4 -2.290482e-3 1.067349e-4 -6.142399e-1 -6.839756e-1 2.696827e-1 -7.292440e-2
5.742174e9 1.082459e-1 -2.564241e-1 -5.907136e-1 -7.071795e-1 -3.162564e-4 2.561024e-3 -8.350747e-4 1.107987e-3
 -5.891917e-1 -7.091943e-1 2.496664e-1 -4.207982e-2 -1.235215e-3 1.049216e-3 -2.282585e-3 1.762943e-4
 -3.074121e-4 2.537589e-3 -1.185794e-3 1.175416e-3 1.146788e-1 -2.820385e-1 -6.205954e-1 -6.761048e-1
 -9.063880e-4 9.741384e-4 -2.312324e-3 1.519470e-4 -6.196071e-1 -6.787047e-1 2.693332e-1 -7.536596e-2
5.762007e9 1.067981e-1 -2.575529e-1 -5.961601e-1 -7.021021e-1 -3.193456e-4 2.588565e-3 -8.398992e-4 1.127437e-3
 -5.946593e-1 -7.041942e-1 2.496711e-1 -4.429916e-2 -1.246761e-3 1.073931e-3 -2.301602e-3 2.203987e-4
 -3.109971e-4 2.564266e-3 -1.195482e-3 1.201709e-3 1.128928e-1 -2.832691e-1 -6.258939e-1 -6.707447e-1
 -9.143374e-4 9.936519e-4 -2.333594e-3 1.981141e-4 -6.249334e-1 -6.733907e-1 2.689494e-1 -7.780707e-2
5.781839e9 1.053438e-1 -2.586615e-1 -6.015651e-1 -6.969777e-1 -3.225364e-4 2.616490e-3 -8.446864e-4 1.147284e-3
 -6.000902e-1 -6.991482e-1 2.496446e-1 -4.652422e-2 -1.258263e-3 1.099219e-3 -2.320173e-3 2.652096e-4
 -3.147627e-4 2.591346e-3 -1.205086e-3 1.228610e-3 1.110956e-1 -2.844750e-1 -6.311504e-1 -6.653415e-1
 -9.221826e-4 1.013655e-3 -2.354257e-3 2.452372e-4 -6.302187e-1 -6.680337e-1 2.685313e-1 -8.024719e-2
5.801672e9 1.038833e-1 -2.597499e-1 -6.069280e-1 -6.918067e-1 -3.258313e-4 2.644809e-3 -8.494341e-4 1.167534e-3
 -6.054840e-1 -6.940562e-1 2.495867e-1 -4.875440e-2 -1.269716e-3 1.125089e-3 -2.338290e-3 3.107368e-4
 -3.187113e-4 2.618847e-3 -1.214597e-3 1.256133e-3 1.092875e-1 -2.856559e-1 -6.363646e-1 -6.598953e-1
 -9.299126e-4 1.034147e-3 -2.374279e-3 2.933152e-4 -6.354627e-1 -6.626341e-1 2.680788e-1 -8.268582e-2
5.821505e9 1.024170e-1 -2.608184e-1 -6.122481e-1 -6.865894e-1 -3.292326e-4 2.673532e-3 -8.541399e-4 1.188197e-3
 -6.108401e-1 -6.889182e-1 2.494971e-1 -5.098905e-2 -1.281116e-3 1.151549e-3 -2.355946e-3 3.569907e-4
 -3.228448e-4 2.646788e-3 -1.224007e-3 1.284289e-3 1.074692e-1 -2.868117e-1 -6.415363e-1 -6.544065e-1
 -9.375173e-4 1.055126e-3 -2.393622e-3 3.423446e-4 -6.406653e-1 -6.571920e-1 2.675919e-1 -8.512243e-2
5.841338e9 1.009451e-1 -2.618670e-1 -6.175248e-1 -6.813262e-1 -3.327427e-4 2.702668e-3 -8.588015e-4 1.209283e-3
 -6.161582e-1 -6.837341e-1 2.493756e-1 -5.322753e-2 -1.292456e-3 1.178609e-3 -2.373132e-3 4.039824e-4
 -3.271640e-4 2.675188e-3 -1.233307e-3 1.313089e-3 1.056409e-1 -2.879423e-1 -6.466651e-1 -6.488752e-1
 -9.449871e-4 1.076590e-3 -2.412251e-3 3.923197e-4 -6.458262e-1 -6.517077e-1 2.670707e-1 -8.755651e-2
5.861171e9 9.946790e-2 -2.628961e-1 -6.227576e-1 -6.760176e-1 -3.363640e-4 2.732228e-3 -8.634160e-4 1.230801e-3
 -6.214377e-1 -6.785038e-1 2.492218e-1 -5.546915e-2 -1.303730e-3 1.206280e-3 -2.389836e-3 4.517236e-4
 -3.316687e-4 2.704066e-3 -1.242487e-3 1.342547e-3 1.038031e-1 -2.890474e-1 -6.517510e-1 -6.433017e-1
 -9.523133e-4 1.098538e-3 -2.430131e-3 4.432322e-4 -6.509453e-1 -6.461814e-1 2.665152e-1 -8.998755e-2
5.881003e9 9.798569e-2 -2.639057e-1 -6.279458e-1 -6.706638e-1 -3.400987e-4 2.762224e-3 -8.679805e-4 1.252762e-3
 -6.266781e-1 -6.732271e-1 2.490357e-1 -5.771322e-2 -1.314935e-3 1.234570e-3 -2.406049e-3 5.002268e-4
 -3.363579e-4 2.733443e-3 -1.251536e-3 1.372674e-3 1.019564e-1 -2.901268e-1 -6.567937e-1 -6.376862e-1
 -9.594880e-4 1.120967e-3 -2.447225e-3 4.950717e-4 -6.560223e-1 -6.406133e-1 2.659253e-1 -9.241506e-2
5.900836e9 9.649863e-2 -2.648961e-1 -6.330889e-1 -6.652655e-1 -3.439492e-4 2.792667e-3 -8.724916e-4 1.275176e-3
 -6.318786e-1 -6.679042e-1 2.488170e-1 -5.995902e-2 -1.326062e-3 1.263492e-3 -2.421757e-3 5.495049e-4
 -3.412293e-4 2.763338e-3 -1.260443e-3 1.403484e-3 1.001011e-1 -2.911805e-1 -6.617928e-1 -6.320290e-1
 -9.665042e-4 1.143875e-3 -2.463499e-3 5.478252e-4 -6.610570e-1 -6.350037e-1 2.653012e-1 -9.483853e-2
5.920669e9 9.500691e-2 -2.658676e-1 -6.381864e-1 -6.598232e-1 -3.479176e-4 2.823568e-3 -8.769458e-4 1.298054e-3
 -6.370388e-1 -6.625349e-1 2.485657e-1 -6.220582e-2 -1.337108e-3 1.293055e-3 -2.436948e-3 5.995713e-4
 -3.462797e-4 2.793772e-3 -1.269196e-3 1.434989e-3 9.823780e-2 -2.922083e-1 -6.667482e-1 -6.263303e-1
 -9.733558e-4 1.167258e-3 -2.478920e-3 6.014776e-4 -6.660492e-1 -6.293526e-1 2.646429e-1 -9.725747e-2
5.940502e9 9.351064e-2 -2.668201e-1 -6.432377e-1 -6.543372e-1 -3.520062e-4 2.854940e-3 -8.813392e-4 1.321409e-3
 -6.421579e-1 -6.571192e-1 2.482816e-1 -6.445289e-2 -1.348064e-3 1.323271e-3 -2.451607e-3 6.504399e-4
 -3.515048e-4 2.824765e-3 -1.277783e-3 1.467202e-3 9.636692e-2 -2.932101e-1 -6.716597e-1 -6.205903e-1
 -9.800377e-4 1.191115e-3 -2.493454e-3 6.560114e-4 -6.709987e-1 -6.236603e-1 2.639503e-1 -9.967140e-2
5.960334e9 9.200993e-2 -2.677540e-1 -6.482422e-1 -6.488082e-1 -3.562169e-4 2.886795e-3 -8.856672e-4 1.345253e-3
 -6.472352e-1 -6.516572e-1 2.479648e-1 -6.669948e-2 -1.358926e-3 1.354153e-3 -2.465717e-3 7.021249e-4
 -3.568991e-4 2.856338e-3 -1.286192e-3 1.500138e-3 9.448894e-2 -2.941857e-1 -6.765270e-1 -6.148092e-1
 -9.865457e-4 1.215443e-3 -2.507070e-3 7.114072e-4 -6.759054e-1 -6.179270e-1 2.632237e-1 -1.020798e-1
5.980167e9 9.050484e-2 -2.686694e-1 -6.531997e-1 -6.432368e-1 -3.605517e-4 2.919147e-3 -8.899250e-4 1.369599e-3
 -6.522700e-1 -6.461489e-1 2.476152e-1 -6.894484e-2 -1.369687e-3 1.385713e-3 -2.479263e-3 7.546410e-4
 -3.624560e-4 2.888512e-3 -1.294407e-3 1.533807e-3 9.260436e-2 -2.951351e-1 -6.813498e-1 -6.089872e-1
 -9.928765e-4 1.240239e-3 -2.519738e-3 7.676435e-4 -6.807690e-1 -6.121528e-1 2.624630e-1 -1.044823e-1
6.000000e9 8.899540e-2 -2.695664e-1 -6.581095e-1 -6.376235e-1 -3.650122e-4 2.952009e-3 -8.941073e-4 1.394459e-3
 -6.572616e-1 -6.405945e-1 2.472329e-1 -7.118822e-2 -1.380339e-3 1.417963e-3 -2.492225e-3 8.080029e-4
 -3.681677e-4 2.921306e-3 -1.302414e-3 1.568225e-3 9.071365e-2 -2.960582e-1 -6.861280e-1 -6.031245e-1
 -9.990279e-4 1.265502e-3 -2.531431e-3 8.246970e-4 -6.855893e-1 -6.063380e-1 2.616683e-1 -1.068783e-1
