! agentee FDTD lna-emi
! ports IN AMP_IN AMP_OUT OUT
# Hz S RI R 50
1.000000e8 0.000000e0 0.000000e0 0.000000e0 0.000000e0 2.412583e-5 -3.859300e-6 0.000000e0 0.000000e0
 0.000000e0 0.000000e0 0.000000e0 0.000000e0 -4.776887e-5 -5.234559e-6 0.000000e0 0.000000e0
 0.000000e0 0.000000e0 0.000000e0 0.000000e0 -7.834138e-1 4.746640e-2 0.000000e0 0.000000e0
 0.000000e0 0.000000e0 0.000000e0 0.000000e0 8.264818e-2 6.536395e-1 0.000000e0 0.000000e0
1.100000e8 0.000000e0 0.000000e0 0.000000e0 0.000000e0 2.835691e-5 -2.253226e-5 0.000000e0 0.000000e0
 0.000000e0 0.000000e0 0.000000e0 0.000000e0 -5.547971e-5 3.212341e-5 0.000000e0 0.000000e0
 0.000000e0 0.000000e0 0.000000e0 0.000000e0 -8.470706e-1 1.459533e-1 0.000000e0 0.000000e0
 0.000000e0 0.000000e0 0.000000e0 0.000000e0 1.986744e-1 6.044072e-1 0.000000e0 0.000000e0
1.200000e8 0.000000e0 0.000000e0 0.000000e0 0.000000e0 1.977719e-5 -3.859348e-5 0.000000e0 0.000000e0
 0.000000e0 0.000000e0 0.000000e0 0.000000e0 -3.568576e-5 6.194717e-5 0.000000e0 0.000000e0
 0.000000e0 0.000000e0 0.000000e0 0.000000e0 -8.482501e-1 2.591648e-1 0.000000e0 0.000000e0
 0.000000e0 0.000000e0 0.000000e0 0.000000e0 2.551385e-1 5.357307e-1 0.000000e0 0.000000e0
1.300000e8 0.000000e0 0.000000e0 0.000000e0 0.000000e0 4.727905e-6 -4.357547e-5 0.000000e0 0.000000e0
 0.000000e0 0.000000e0 0.000000e0 0.000000e0 -4.201970e-6 6.625617e-5 0.000000e0 0.000000e0
 0.000000e0 0.000000e0 0.000000e0 0.000000e0 -7.973809e-1 3.478583e-1 0.000000e0 0.000000e0
 0.000000e0 0.000000e0 0.000000e0 0.000000e0 2.618551e-1 4.863257e-1 0.000000e0 0.000000e0
1.400000e8 0.000000e0 0.000000e0 0.000000e0 0.000000e0 -6.317671e-6 -3.669800e-5 0.000000e0 0.000000e0
 0.000000e0 0.000000e0 0.000000e0 0.000000e0 1.520581e-5 4.566533e-5 0.000000e0 0.000000e0
 0.000000e0 0.000000e0 0.000000e0 0.000000e0 -7.253683e-1 3.912663e-1 0.000000e0 0.000000e0
 0.000000e0 0.000000e0 0.000000e0 0.000000e0 2.488351e-1 4.766894e-1 0.000000e0 0.000000e0
1.500000e8 0.000000e0 0.000000e0 0.000000e0 0.000000e0 -5.997607e-6 -2.530991e-5 0.000000e0 0.000000e0
 0.000000e0 0.000000e0 0.000000e0 0.000000e0 7.926617e-6 1.872181e-5 0.000000e0 0.000000e0
 0.000000e0 0.000000e0 0.000000e0 0.000000e0 -6.654362e-1 3.944366e-1 0.000000e0 0.000000e0
 0.000000e0 0.000000e0 0.000000e0 0.000000e0 2.483485e-1 5.019017e-1 0.000000e0 0.000000e0
1.600000e8 0.000000e0 0.000000e0 0.000000e0 0.000000e0 4.884211e-6 -1.967800e-5 0.000000e0 0.000000e0
 0.000000e0 0.000000e0 0.000000e0 0.000000e0 -2.108754e-5 8.362960e-6 0.000000e0 0.000000e0
 0.000000e0 0.000000e0 0.000000e0 0.000000e0 -6.357291e-1 3.812260e-1 0.000000e0 0.000000e0
 0.000000e0 0.000000e0 0.000000e0 0.000000e0 2.777897e-1 5.385836e-1 0.000000e0 0.000000e0
1.700000e8 0.000000e0 0.000000e0 0.000000e0 0.000000e0 1.804617e-5 -2.576329e-5 0.000000e0 0.000000e0
 0.000000e0 0.000000e0 0.000000e0 0.000000e0 -5.111020e-5 2.530211e-5 0.000000e0 0.000000e0
 0.000000e0 0.000000e0 0.000000e0 0.000000e0 -6.322834e-1 3.779325e-1 0.000000e0 0.000000e0
 0.000000e0 0.000000e0 0.000000e0 0.000000e0 3.328046e-1 5.610477e-1 0.000000e0 0.000000e0
1.800000e8 0.000000e0 0.000000e0 0.000000e0 0.000000e0 2.367058e-5 -4.108939e-5 0.000000e0 0.000000e0
 0.000000e0 0.000000e0 0.000000e0 0.000000e0 -6.081342e-5 6.041875e-5 0.000000e0 0.000000e0
 0.000000e0 0.000000e0 0.000000e0 0.000000e0 -6.354413e-1 3.977853e-1 0.000000e0 0.000000e0
 0.000000e0 0.000000e0 0.000000e0 0.000000e0 3.936627e-1 5.565526e-1 0.000000e0 0.000000e0
1.900000e8 0.000000e0 0.000000e0 0.000000e0 0.000000e0 1.735663e-5 -5.660752e-5 0.000000e0 0.000000e0
 0.000000e0 0.000000e0 0.000000e0 0.000000e0 -4.368852e-5 9.159907e-5 0.000000e0 0.000000e0
 0.000000e0 0.000000e0 0.000000e0 0.000000e0 -6.245123e-1 4.353019e-1 0.000000e0 0.000000e0
 0.000000e0 0.000000e0 0.000000e0 0.000000e0 4.397183e-1 5.308038e-1 0.000000e0 0.000000e0
2.000000e8 0.000000e0 0.000000e0 0.000000e0 0.000000e0 3.160954e-6 -6.316634e-5 0.000000e0 0.000000e0
 0.000000e0 0.000000e0 0.000000e0 0.000000e0 -1.253940e-5 9.986030e-5 0.000000e0 0.000000e0
 0.000000e0 0.000000e0 0.000000e0 0.000000e0 -5.909397e-1 4.727238e-1 0.000000e0 0.000000e0
 0.000000e0 0.000000e0 0.000000e0 0.000000e0 4.623494e-1 5.015660e-1 0.000000e0 0.000000e0
2.100000e8 0.000000e0 0.000000e0 0.000000e0 0.000000e0 -9.355781e-6 -5.796682e-5 0.000000e0 0.000000e0
 0.000000e0 0.000000e0 0.000000e0 0.000000e0 1.000644e-5 8.297726e-5 0.000000e0 0.000000e0
 0.000000e0 0.000000e0 0.000000e0 0.000000e0 -5.421526e-1 4.931377e-1 0.000000e0 0.000000e0
 0.000000e0 0.000000e0 0.000000e0 0.000000e0 4.687032e-1 4.857318e-1 0.000000e0 0.000000e0
2.200000e8 0.000000e0 0.000000e0 0.000000e0 0.000000e0 -1.192331e-5 -4.646986e-5 0.000000e0 0.000000e0
 0.000000e0 0.000000e0 0.000000e0 0.000000e0 7.928970e-6 5.685424e-5 0.000000e0 0.000000e0
 0.000000e0 0.000000e0 0.000000e0 0.000000e0 -4.948497e-1 4.913762e-1 0.000000e0 0.000000e0
 0.000000e0 0.000000e0 0.000000e0 0.000000e0 4.750515e-1 4.886142e-1 0.000000e0 0.000000e0
2.300000e8 0.000000e0 0.000000e0 0.000000e0 0.000000e0 -3.380988e-6 -3.845841e-5 0.000000e0 0.000000e0
 0.000000e0 0.000000e0 0.000000e0 0.000000e0 -1.671998e-5 4.380838e-5 0.000000e0 0.000000e0
 0.000000e0 0.000000e0 0.000000e0 0.000000e0 -4.631368e-1 4.761084e-1 0.000000e0 0.000000e0
 0.000000e0 0.000000e0 0.000000e0 0.000000e0 4.951158e-1 5.019229e-1 0.000000e0 0.000000e0
2.400000e8 0.000000e0 0.000000e0 0.000000e0 0.000000e0 9.583601e-6 -4.107592e-5 0.000000e0 0.000000e0
 0.000000e0 0.000000e0 0.000000e0 0.000000e0 -4.554723e-5 5.635672e-5 0.000000e0 0.000000e0
 0.000000e0 0.000000e0 0.000000e0 0.000000e0 -4.496483e-1 4.627228e-1 0.000000e0 0.000000e0
 0.000000e0 0.000000e0 0.000000e0 0.000000e0 5.313569e-1 5.107830e-1 0.000000e0 0.000000e0
2.500000e8 0.000000e0 0.000000e0 0.000000e0 0.000000e0 1.726743e-5 -5.380162e-5 0.000000e0 0.000000e0
 0.000000e0 0.000000e0 0.000000e0 0.000000e0 -5.735496e-5 8.830151e-5 0.000000e0 0.000000e0
 0.000000e0 0.000000e0 0.000000e0 0.000000e0 -4.451140e-1 4.625601e-1 0.000000e0 0.000000e0
 0.000000e0 0.000000e0 0.000000e0 0.000000e0 5.745739e-1 5.043137e-1 0.000000e0 0.000000e0
2.600000e8 0.000000e0 0.000000e0 0.000000e0 0.000000e0 1.387120e-5 -6.891756e-5 0.000000e0 0.000000e0
 0.000000e0 0.000000e0 0.000000e0 0.000000e0 -4.351372e-5 1.194883e-4 0.000000e0 0.000000e0
 0.000000e0 0.000000e0 0.000000e0 0.000000e0 -4.358141e-1 4.759268e-1 0.000000e0 0.000000e0
 0.000000e0 0.000000e0 0.000000e0 0.000000e0 6.112430e-1 4.824717e-1 0.000000e0 0.000000e0
2.700000e8 0.000000e0 0.000000e0 0.000000e0 0.000000e0 1.568536e-6 -7.707096e-5 0.000000e0 0.000000e0
 0.000000e0 0.000000e0 0.000000e0 0.000000e0 -1.401104e-5 1.305762e-4 0.000000e0 0.000000e0
 0.000000e0 0.000000e0 0.000000e0 0.000000e0 -4.132178e-1 4.931307e-1 0.000000e0 0.000000e0
 0.000000e0 0.000000e0 0.000000e0 0.000000e0 6.329764e-1 4.550104e-1 0.000000e0 0.000000e0
2.800000e8 0.000000e0 0.000000e0 0.000000e0 0.000000e0 -1.111735e-5 -7.392787e-5 0.000000e0 0.000000e0
 0.000000e0 0.000000e0 0.000000e0 0.000000e0 1.002818e-5 1.169855e-4 0.000000e0 0.000000e0
 0.000000e0 0.000000e0 0.000000e0 0.000000e0 -3.792036e-1 5.020653e-1 0.000000e0 0.000000e0
 0.000000e0 0.000000e0 0.000000e0 0.000000e0 6.416296e-1 4.340214e-1 0.000000e0 0.000000e0
2.900000e8 0.000000e0 0.000000e0 0.000000e0 0.000000e0 -1.541280e-5 -6.320446e-5 0.000000e0 0.000000e0
 0.000000e0 0.000000e0 0.000000e0 0.000000e0 1.173617e-5 9.199296e-5 0.000000e0 0.000000e0
 0.000000e0 0.000000e0 0.000000e0 0.000000e0 -3.438128e-1 4.966820e-1 0.000000e0 0.000000e0
 0.000000e0 0.000000e0 0.000000e0 0.000000e0 6.470779e-1 4.256237e-1 0.000000e0 0.000000e0
3.000000e8 0.000000e0 0.000000e0 0.000000e0 0.000000e0 -8.514236e-6 -5.396996e-5 0.000000e0 0.000000e0
 0.000000e0 0.000000e0 0.000000e0 0.000000e0 -9.390877e-6 7.690555e-5 0.000000e0 0.000000e0
 0.000000e0 0.000000e0 0.000000e0 0.000000e0 -3.177117e-1 4.806103e-1 0.000000e0 0.000000e0
 0.000000e0 0.000000e0 0.000000e0 0.000000e0 6.598107e-1 4.264215e-1 0.000000e0 0.000000e0
3.100000e8 0.000000e0 0.000000e0 0.000000e0 0.000000e0 4.477680e-6 -5.417669e-5 0.000000e0 0.000000e0
 0.000000e0 0.000000e0 0.000000e0 0.000000e0 -3.736643e-5 8.557243e-5 0.000000e0 0.000000e0
 0.000000e0 0.000000e0 0.000000e0 0.000000e0 -3.048846e-1 4.639109e-1 0.000000e0 0.000000e0
 0.000000e0 0.000000e0 0.000000e0 0.000000e0 6.837640e-1 4.266999e-1 0.000000e0 0.000000e0
3.200000e8 0.000000e0 0.000000e0 0.000000e0 0.000000e0 1.425177e-5 -6.504196e-5 0.000000e0 0.000000e0
 0.000000e0 0.000000e0 0.000000e0 0.000000e0 -5.150354e-5 1.145086e-4 0.000000e0 0.000000e0
 0.000000e0 0.000000e0 0.000000e0 0.000000e0 -3.004847e-1 4.557293e-1 0.000000e0 0.000000e0
 0.000000e0 0.000000e0 0.000000e0 0.000000e0 7.142179e-1 4.176345e-1 0.000000e0 0.000000e0
3.300000e8 0.000000e0 0.000000e0 0.000000e0 0.000000e0 1.392969e-5 -8.026925e-5 0.000000e0 0.000000e0
 0.000000e0 0.000000e0 0.000000e0 0.000000e0 -4.141325e-5 1.456961e-4 0.000000e0 0.000000e0
 0.000000e0 0.000000e0 0.000000e0 0.000000e0 -2.948819e-1 4.581824e-1 0.000000e0 0.000000e0
 0.000000e0 0.000000e0 0.000000e0 0.000000e0 7.417698e-1 3.972846e-1 0.000000e0 0.000000e0
3.400000e8 0.000000e0 0.000000e0 0.000000e0 0.000000e0 3.905930e-6 -9.060715e-5 0.000000e0 0.000000e0
 0.000000e0 0.000000e0 0.000000e0 0.000000e0 -1.431617e-5 1.598228e-4 0.000000e0 0.000000e0
 0.000000e0 0.000000e0 0.000000e0 0.000000e0 -2.806399e-1 4.655472e-1 0.000000e0 0.000000e0
 0.000000e0 0.000000e0 0.000000e0 0.000000e0 7.591740e-1 3.713866e-1 0.000000e0 0.000000e0
3.500000e8 0.000000e0 0.000000e0 0.000000e0 0.000000e0 -8.523541e-6 -9.044716e-5 0.000000e0 0.000000e0
 0.000000e0 0.000000e0 0.000000e0 0.000000e0 1.046313e-5 1.502208e-4 0.000000e0 0.000000e0
 0.000000e0 0.000000e0 0.000000e0 0.000000e0 -2.574230e-1 4.688707e-1 0.000000e0 0.000000e0
 0.000000e0 0.000000e0 0.000000e0 0.000000e0 7.661520e-1 3.488342e-1 0.000000e0 0.000000e0
3.600000e8 0.000000e0 0.000000e0 0.000000e0 0.000000e0 -1.441794e-5 -8.176636e-5 0.000000e0 0.000000e0
 0.000000e0 0.000000e0 0.000000e0 0.000000e0 1.562290e-5 1.274600e-4 0.000000e0 0.000000e0
 0.000000e0 0.000000e0 0.000000e0 0.000000e0 -2.316499e-1 4.624226e-1 0.000000e0 0.000000e0
 0.000000e0 0.000000e0 0.000000e0 0.000000e0 7.690524e-1 3.353524e-1 0.000000e0 0.000000e0
3.700000e8 0.000000e0 0.000000e0 0.000000e0 0.000000e0 -9.561624e-6 -7.265206e-5 0.000000e0 0.000000e0
 0.000000e0 0.000000e0 0.000000e0 0.000000e0 -1.677857e-6 1.114504e-4 0.000000e0 0.000000e0
 0.000000e0 0.000000e0 0.000000e0 0.000000e0 -2.115353e-1 4.474369e-1 0.000000e0 0.000000e0
 0.000000e0 0.000000e0 0.000000e0 0.000000e0 7.759911e-1 3.298291e-1 0.000000e0 0.000000e0
3.800000e8 0.000000e0 0.000000e0 0.000000e0 0.000000e0 2.579120e-6 -7.150264e-5 0.000000e0 0.000000e0
 0.000000e0 0.000000e0 0.000000e0 0.000000e0 -2.800583e-5 1.169369e-4 0.000000e0 0.000000e0
 0.000000e0 0.000000e0 0.000000e0 0.000000e0 -2.012631e-1 4.307734e-1 0.000000e0 0.000000e0
 0.000000e0 0.000000e0 0.000000e0 0.000000e0 7.911382e-1 3.256227e-1 0.000000e0 0.000000e0
3.900000e8 0.000000e0 0.000000e0 0.000000e0 0.000000e0 1.338465e-5 -8.106161e-5 0.000000e0 0.000000e0
 0.000000e0 0.000000e0 0.000000e0 0.000000e0 -4.360983e-5 1.429581e-4 0.000000e0 0.000000e0
 0.000000e0 0.000000e0 0.000000e0 0.000000e0 -1.983692e-1 4.197897e-1 0.000000e0 0.000000e0
 0.000000e0 0.000000e0 0.000000e0 0.000000e0 8.121468e-1 3.155869e-1 0.000000e0 0.000000e0
4.000000e8 0.000000e0 0.000000e0 0.000000e0 0.000000e0 1.524536e-5 -9.652981e-5 0.000000e0 0.000000e0
 0.000000e0 0.000000e0 0.000000e0 0.000000e0 -3.676115e-5 1.738172e-4 0.000000e0 0.000000e0
 0.000000e0 0.000000e0 0.000000e0 0.000000e0 -1.959129e-1 4.172363e-1 0.000000e0 0.000000e0
 0.000000e0 0.000000e0 0.000000e0 0.000000e0 8.322737e-1 2.970770e-1 0.000000e0 0.000000e0
4.100000e8 0.000000e0 0.000000e0 0.000000e0 0.000000e0 6.939112e-6 -1.090520e-4 0.000000e0 0.000000e0
 0.000000e0 0.000000e0 0.000000e0 0.000000e0 -1.204902e-5 1.906540e-4 0.000000e0 0.000000e0
 0.000000e0 0.000000e0 0.000000e0 0.000000e0 -1.875917e-1 4.197072e-1 0.000000e0 0.000000e0
 0.000000e0 0.000000e0 0.000000e0 0.000000e0 8.453892e-1 2.734774e-1 0.000000e0 0.000000e0
4.200000e8 0.000000e0 0.000000e0 0.000000e0 0.000000e0 -5.583132e-6 -1.120388e-4 0.000000e0 0.000000e0
 0.000000e0 0.000000e0 0.000000e0 0.000000e0 1.322664e-5 1.850764e-4 0.000000e0 0.000000e0
 0.000000e0 0.000000e0 0.000000e0 0.000000e0 -1.720496e-1 4.204616e-1 0.000000e0 0.000000e0
 0.000000e0 0.000000e0 0.000000e0 0.000000e0 8.502038e-1 2.514456e-1 0.000000e0 0.000000e0
4.300000e8 0.000000e0 0.000000e0 0.000000e0 0.000000e0 -1.350532e-5 -1.058105e-4 0.000000e0 0.000000e0
 0.000000e0 0.000000e0 0.000000e0 0.000000e0 2.174022e-5 1.650081e-4 0.000000e0 0.000000e0
 0.000000e0 0.000000e0 0.000000e0 0.000000e0 -1.534573e-1 4.143581e-1 0.000000e0 0.000000e0
 0.000000e0 0.000000e0 0.000000e0 0.000000e0 8.508473e-1 2.360787e-1 0.000000e0 0.000000e0
4.400000e8 0.000000e0 0.000000e0 0.000000e0 0.000000e0 -1.144102e-5 -9.729116e-5 0.000000e0 0.000000e0
 0.000000e0 0.000000e0 0.000000e0 0.000000e0 8.616854e-6 1.486908e-4 0.000000e0 0.000000e0
 0.000000e0 0.000000e0 0.000000e0 0.000000e0 -1.382165e-1 4.013409e-1 0.000000e0 0.000000e0
 0.000000e0 0.000000e0 0.000000e0 0.000000e0 8.536489e-1 2.274902e-1 0.000000e0 0.000000e0
4.500000e8 0.000000e0 0.000000e0 0.000000e0 0.000000e0 -1.230164e-6 -9.501490e-5 0.000000e0 0.000000e0
 0.000000e0 0.000000e0 0.000000e0 0.000000e0 -1.527525e-5 1.513617e-4 0.000000e0 0.000000e0
 0.000000e0 0.000000e0 0.000000e0 0.000000e0 -1.303330e-1 3.861550e-1 0.000000e0 0.000000e0
 0.000000e0 0.000000e0 0.000000e0 0.000000e0 8.626022e-1 2.210757e-1 0.000000e0 0.000000e0
4.600000e8 0.000000e0 0.000000e0 0.000000e0 0.000000e0 9.438681e-6 -1.030371e-4 0.000000e0 0.000000e0
 0.000000e0 0.000000e0 0.000000e0 0.000000e0 -3.143348e-5 1.743306e-4 0.000000e0 0.000000e0
 0.000000e0 0.000000e0 0.000000e0 0.000000e0 -1.287633e-1 3.747341e-1 0.000000e0 0.000000e0
 0.000000e0 0.000000e0 0.000000e0 0.000000e0 8.767529e-1 2.110450e-1 0.000000e0 0.000000e0
4.700000e8 0.000000e0 0.000000e0 0.000000e0 0.000000e0 1.255098e-5 -1.180914e-4 0.000000e0 0.000000e0
 0.000000e0 0.000000e0 0.000000e0 0.000000e0 -2.718078e-5 2.042921e-4 0.000000e0 0.000000e0
 0.000000e0 0.000000e0 0.000000e0 0.000000e0 -1.284560e-1 3.699929e-1 0.000000e0 0.000000e0
 0.000000e0 0.000000e0 0.000000e0 0.000000e0 8.912061e-1 1.945487e-1 0.000000e0 0.000000e0
4.800000e8 0.000000e0 0.000000e0 0.000000e0 0.000000e0 5.462344e-6 -1.319808e-4 0.000000e0 0.000000e0
 0.000000e0 0.000000e0 0.000000e0 0.000000e0 -4.674923e-6 2.231721e-4 0.000000e0 0.000000e0
 0.000000e0 0.000000e0 0.000000e0 0.000000e0 -1.241234e-1 3.699988e-1 0.000000e0 0.000000e0
 0.000000e0 0.000000e0 0.000000e0 0.000000e0 9.008142e-1 1.734845e-1 0.000000e0 0.000000e0
4.900000e8 0.000000e0 0.000000e0 0.000000e0 0.000000e0 -7.279233e-6 -1.374435e-4 0.000000e0 0.000000e0
 0.000000e0 0.000000e0 0.000000e0 0.000000e0 2.092679e-5 2.212129e-4 0.000000e0 0.000000e0
 0.000000e0 0.000000e0 0.000000e0 0.000000e0 -1.139351e-1 3.696417e-1 0.000000e0 0.000000e0
 0.000000e0 0.000000e0 0.000000e0 0.000000e0 9.038035e-1 1.528761e-1 0.000000e0 0.000000e0
5.000000e8 0.000000e0 0.000000e0 0.000000e0 0.000000e0 -1.723451e-5 -1.332964e-4 0.000000e0 0.000000e0
 0.000000e0 0.000000e0 0.000000e0 0.000000e0 3.261143e-5 2.038296e-4 0.000000e0 0.000000e0
 0.000000e0 0.000000e0 0.000000e0 0.000000e0 -1.005649e-1 3.644154e-1 0.000000e0 0.000000e0
 0.000000e0 0.000000e0 0.000000e0 0.000000e0 9.028165e-1 1.371723e-1 0.000000e0 0.000000e0
5.100000e8 0.000000e0 0.000000e0 0.000000e0 0.000000e0 -1.810470e-5 -1.252133e-4 0.000000e0 0.000000e0
 0.000000e0 0.000000e0 0.000000e0 0.000000e0 2.377992e-5 1.874323e-4 0.000000e0 0.000000e0
 0.000000e0 0.000000e0 0.000000e0 0.000000e0 -8.902642e-2 3.535410e-1 0.000000e0 0.000000e0
 0.000000e0 0.000000e0 0.000000e0 0.000000e0 9.028049e-1 1.271769e-1 0.000000e0 0.000000e0
5.200000e8 0.000000e0 0.000000e0 0.000000e0 0.000000e0 -1.018851e-5 -1.216268e-4 0.000000e0 0.000000e0
 0.000000e0 0.000000e0 0.000000e0 0.000000e0 2.803191e-6 1.874186e-4 0.000000e0 0.000000e0
 0.000000e0 0.000000e0 0.000000e0 0.000000e0 -8.300426e-2 3.402908e-1 0.000000e0 0.000000e0
 0.000000e0 0.000000e0 0.000000e0 0.000000e0 9.074359e-1 1.197127e-1 0.000000e0 0.000000e0
5.300000e8 0.000000e0 0.000000e0 0.000000e0 0.000000e0 -1.111129e-7 -1.277063e-4 0.000000e0 0.000000e0
 0.000000e0 0.000000e0 0.000000e0 0.000000e0 -1.327392e-5 2.071166e-4 0.000000e0 0.000000e0
 0.000000e0 0.000000e0 0.000000e0 0.000000e0 -8.233815e-2 3.294548e-1 0.000000e0 0.000000e0
 0.000000e0 0.000000e0 0.000000e0 0.000000e0 9.166134e-1 1.100926e-1 0.000000e0 0.000000e0
5.400000e8 0.000000e0 0.000000e0 0.000000e0 0.000000e0 3.939052e-6 -1.417107e-4 0.000000e0 0.000000e0
 0.000000e0 0.000000e0 0.000000e0 0.000000e0 -1.114620e-5 2.356186e-4 0.000000e0 0.000000e0
 0.000000e0 0.000000e0 0.000000e0 0.000000e0 -8.335412e-2 3.238940e-1 0.000000e0 0.000000e0
 0.000000e0 0.000000e0 0.000000e0 0.000000e0 9.267837e-1 9.549980e-2 0.000000e0 0.000000e0
5.500000e8 0.000000e0 0.000000e0 0.000000e0 0.000000e0 -1.964635e-6 -1.562839e-4 0.000000e0 0.000000e0
 0.000000e0 0.000000e0 0.000000e0 0.000000e0 9.272504e-6 2.558878e-4 0.000000e0 0.000000e0
 0.000000e0 0.000000e0 0.000000e0 0.000000e0 -8.164039e-2 3.226521e-1 0.000000e0 0.000000e0
 0.000000e0 0.000000e0 0.000000e0 0.000000e0 9.336456e-1 7.685449e-2 0.000000e0 0.000000e0
5.600000e8 0.000000e0 0.000000e0 0.000000e0 0.000000e0 -1.474493e-5 -1.637169e-4 0.000000e0 0.000000e0
 0.000000e0 0.000000e0 0.000000e0 0.000000e0 3.505344e-5 2.570996e-4 0.000000e0 0.000000e0
 0.000000e0 0.000000e0 0.000000e0 0.000000e0 -7.517610e-2 3.218557e-1 0.000000e0 0.000000e0
 0.000000e0 0.000000e0 0.000000e0 0.000000e0 9.352232e-1 5.795071e-2 0.000000e0 0.000000e0
5.700000e8 0.000000e0 0.000000e0 0.000000e0 0.000000e0 -2.656931e-5 -1.614032e-4 0.000000e0 0.000000e0
 0.000000e0 0.000000e0 0.000000e0 0.000000e0 4.979053e-5 2.422718e-4 0.000000e0 0.000000e0
 0.000000e0 0.000000e0 0.000000e0 0.000000e0 -6.560014e-2 3.176072e-1 0.000000e0 0.000000e0
 0.000000e0 0.000000e0 0.000000e0 0.000000e0 9.331283e-1 4.262850e-2 0.000000e0 0.000000e0
5.800000e8 0.000000e0 0.000000e0 0.000000e0 0.000000e0 -3.044135e-5 -1.536213e-4 0.000000e0 0.000000e0
 0.000000e0 0.000000e0 0.000000e0 0.000000e0 4.543785e-5 2.258078e-4 0.000000e0 0.000000e0
 0.000000e0 0.000000e0 0.000000e0 0.000000e0 -5.683926e-2 3.087270e-1 0.000000e0 0.000000e0
 0.000000e0 0.000000e0 0.000000e0 0.000000e0 9.312330e-1 3.207611e-2 0.000000e0 0.000000e0
5.900000e8 0.000000e0 0.000000e0 0.000000e0 0.000000e0 -2.513698e-5 -1.484197e-4 0.000000e0 0.000000e0
 0.000000e0 0.000000e0 0.000000e0 0.000000e0 2.790484e-5 2.229160e-4 0.000000e0 0.000000e0
 0.000000e0 0.000000e0 0.000000e0 0.000000e0 -5.220742e-2 2.974307e-1 0.000000e0 0.000000e0
 0.000000e0 0.000000e0 0.000000e0 0.000000e0 9.328308e-1 2.414599e-2 0.000000e0 0.000000e0
6.000000e8 0.000000e0 0.000000e0 0.000000e0 0.000000e0 -1.598990e-5 -1.518658e-4 0.000000e0 0.000000e0
 0.000000e0 0.000000e0 0.000000e0 0.000000e0 1.251137e-5 2.386687e-4 0.000000e0 0.000000e0
 0.000000e0 0.000000e0 0.000000e0 0.000000e0 -5.209924e-2 2.875808e-1 0.000000e0 0.000000e0
 0.000000e0 0.000000e0 0.000000e0 0.000000e0 9.383613e-1 1.505312e-2 0.000000e0 0.000000e0
6.100000e8 0.000000e0 0.000000e0 0.000000e0 0.000000e0 -1.101498e-5 -1.637729e-4 0.000000e0 0.000000e0
 0.000000e0 0.000000e0 0.000000e0 0.000000e0 1.277517e-5 2.645736e-4 0.000000e0 0.000000e0
 0.000000e0 0.000000e0 0.000000e0 0.000000e0 -5.386697e-2 2.818768e-1 0.000000e0 0.000000e0
 0.000000e0 0.000000e0 0.000000e0 0.000000e0 9.452693e-1 2.130063e-3 0.000000e0 0.000000e0
6.200000e8 0.000000e0 0.000000e0 0.000000e0 0.000000e0 -1.518022e-5 -1.779223e-4 0.000000e0 0.000000e0
 0.000000e0 0.000000e0 0.000000e0 0.000000e0 3.073366e-5 2.849686e-4 0.000000e0 0.000000e0
 0.000000e0 0.000000e0 0.000000e0 0.000000e0 -5.384569e-2 2.800204e-1 0.000000e0 0.000000e0
 0.000000e0 0.000000e0 0.000000e0 0.000000e0 9.499769e-1 -1.435740e-2 0.000000e0 0.000000e0
6.300000e8 0.000000e0 0.000000e0 0.000000e0 0.000000e0 -2.691847e-5 -1.865644e-4 0.000000e0 0.000000e0
 0.000000e0 0.000000e0 0.000000e0 0.000000e0 5.572176e-5 2.884289e-4 0.000000e0 0.000000e0
 0.000000e0 0.000000e0 0.000000e0 0.000000e0 -4.998232e-2 2.790916e-1 0.000000e0 0.000000e0
 0.000000e0 0.000000e0 0.000000e0 0.000000e0 9.504662e-1 -3.155817e-2 0.000000e0 0.000000e0
6.400000e8 0.000000e0 0.000000e0 0.000000e0 0.000000e0 -3.932573e-5 -1.859486e-4 0.000000e0 0.000000e0
 0.000000e0 0.000000e0 0.000000e0 0.000000e0 7.230119e-5 2.758914e-4 0.000000e0 0.000000e0
 0.000000e0 0.000000e0 0.000000e0 0.000000e0 -4.318658e-2 2.757487e-1 0.000000e0 0.000000e0
 0.000000e0 0.000000e0 0.000000e0 0.000000e0 9.476223e-1 -4.618335e-2 0.000000e0 0.000000e0
6.500000e8 0.000000e0 0.000000e0 0.000000e0 0.000000e0 -4.513781e-5 -1.789422e-4 0.000000e0 0.000000e0
 0.000000e0 0.000000e0 0.000000e0 0.000000e0 7.145727e-5 2.597278e-4 0.000000e0 0.000000e0
 0.000000e0 0.000000e0 0.000000e0 0.000000e0 -3.652352e-2 2.686068e-1 0.000000e0 0.000000e0
 0.000000e0 0.000000e0 0.000000e0 0.000000e0 9.444624e-1 -5.684655e-2 0.000000e0 0.000000e0
6.600000e8 0.000000e0 0.000000e0 0.000000e0 0.000000e0 -4.190561e-5 -1.729117e-4 0.000000e0 0.000000e0
 0.000000e0 0.000000e0 0.000000e0 0.000000e0 5.695386e-5 2.546156e-4 0.000000e0 0.000000e0
 0.000000e0 0.000000e0 0.000000e0 0.000000e0 -3.293090e-2 2.591100e-1 0.000000e0 0.000000e0
 0.000000e0 0.000000e0 0.000000e0 0.000000e0 9.439023e-1 -6.494075e-2 0.000000e0 0.000000e0
6.700000e8 0.000000e0 0.000000e0 0.000000e0 0.000000e0 -3.368332e-5 -1.744227e-4 0.000000e0 0.000000e0
 0.000000e0 0.000000e0 0.000000e0 0.000000e0 4.237040e-5 2.669299e-4 0.000000e0 0.000000e0
 0.000000e0 0.000000e0 0.000000e0 0.000000e0 -3.314665e-2 2.503638e-1 0.000000e0 0.000000e0
 0.000000e0 0.000000e0 0.000000e0 0.000000e0 9.467122e-1 -7.351045e-2 0.000000e0 0.000000e0
6.800000e8 0.000000e0 0.000000e0 0.000000e0 0.000000e0 -2.806390e-5 -1.845696e-4 0.000000e0 0.000000e0
 0.000000e0 0.000000e0 0.000000e0 0.000000e0 4.113502e-5 2.903186e-4 0.000000e0 0.000000e0
 0.000000e0 0.000000e0 0.000000e0 0.000000e0 -3.529745e-2 2.448556e-1 0.000000e0 0.000000e0
 0.000000e0 0.000000e0 0.000000e0 0.000000e0 9.510912e-1 -8.501798e-2 0.000000e0 0.000000e0
6.900000e8 0.000000e0 0.000000e0 0.000000e0 0.000000e0 -3.072555e-5 -1.982570e-4 0.000000e0 0.000000e0
 0.000000e0 0.000000e0 0.000000e0 0.000000e0 5.686560e-5 3.105218e-4 0.000000e0 0.000000e0
 0.000000e0 0.000000e0 0.000000e0 0.000000e0 -3.635166e-2 2.427309e-1 0.000000e0 0.000000e0
 0.000000e0 0.000000e0 0.000000e0 0.000000e0 9.540772e-1 -9.963683e-2 0.000000e0 0.000000e0
7.000000e8 0.000000e0 0.000000e0 0.000000e0 0.000000e0 -4.140249e-5 -2.078985e-4 0.000000e0 0.000000e0
 0.000000e0 0.000000e0 0.000000e0 0.000000e0 8.095771e-5 3.157799e-4 0.000000e0 0.000000e0
 0.000000e0 0.000000e0 0.000000e0 0.000000e0 -3.431417e-2 2.418115e-1 0.000000e0 0.000000e0
 0.000000e0 0.000000e0 0.000000e0 0.000000e0 9.537029e-1 -1.152477e-1 0.000000e0 0.000000e0
7.100000e8 0.000000e0 0.000000e0 0.000000e0 0.000000e0 -5.413300e-5 -2.088517e-4 0.000000e0 0.000000e0
 0.000000e0 0.000000e0 0.000000e0 0.000000e0 9.900479e-5 3.052391e-4 0.000000e0 0.000000e0
 0.000000e0 0.000000e0 0.000000e0 0.000000e0 -2.957702e-2 2.392519e-1 0.000000e0 0.000000e0
 0.000000e0 0.000000e0 0.000000e0 0.000000e0 9.503383e-1 -1.290517e-1 0.000000e0 0.000000e0
7.200000e8 0.000000e0 0.000000e0 0.000000e0 0.000000e0 -6.156371e-5 -2.027018e-4 0.000000e0 0.000000e0
 0.000000e0 0.000000e0 0.000000e0 0.000000e0 1.012638e-4 2.893564e-4 0.000000e0 0.000000e0
 0.000000e0 0.000000e0 0.000000e0 0.000000e0 -2.451691e-2 2.335830e-1 0.000000e0 0.000000e0
 0.000000e0 0.000000e0 0.000000e0 0.000000e0 9.463177e-1 -1.395818e-1 0.000000e0 0.000000e0
7.300000e8 0.000000e0 0.000000e0 0.000000e0 0.000000e0 -6.020540e-5 -1.960738e-4 0.000000e0 0.000000e0
 0.000000e0 0.000000e0 0.000000e0 0.000000e0 8.956936e-5 2.821656e-4 0.000000e0 0.000000e0
 0.000000e0 0.000000e0 0.000000e0 0.000000e0 -2.171131e-2 2.256809e-1 0.000000e0 0.000000e0
 0.000000e0 0.000000e0 0.000000e0 0.000000e0 9.441972e-1 -1.476741e-1 0.000000e0 0.000000e0
7.400000e8 0.000000e0 0.000000e0 0.000000e0 0.000000e0 -5.288427e-5 -1.958623e-4 0.000000e0 0.000000e0
 0.000000e0 0.000000e0 0.000000e0 0.000000e0 7.579201e-5 2.911173e-4 0.000000e0 0.000000e0
 0.000000e0 0.000000e0 0.000000e0 0.000000e0 -2.210143e-2 2.180306e-1 0.000000e0 0.000000e0
 0.000000e0 0.000000e0 0.000000e0 0.000000e0 9.449412e-1 -1.557638e-1 0.000000e0 0.000000e0
7.500000e8 0.000000e0 0.000000e0 0.000000e0 0.000000e0 -4.666497e-5 -2.043128e-4 0.000000e0 0.000000e0
 0.000000e0 0.000000e0 0.000000e0 0.000000e0 7.310682e-5 3.118472e-4 0.000000e0 0.000000e0
 0.000000e0 0.000000e0 0.000000e0 0.000000e0 -2.440293e-2 2.128876e-1 0.000000e0 0.000000e0
 0.000000e0 0.000000e0 0.000000e0 0.000000e0 9.473231e-1 -1.660860e-1 0.000000e0 0.000000e0
7.600000e8 0.000000e0 0.000000e0 0.000000e0 0.000000e0 -4.776993e-5 -2.174675e-4 0.000000e0 0.000000e0
 0.000000e0 0.000000e0 0.000000e0 0.000000e0 8.649265e-5 3.315419e-4 0.000000e0 0.000000e0
 0.000000e0 0.000000e0 0.000000e0 0.000000e0 -2.611983e-2 2.106932e-1 0.000000e0 0.000000e0
 0.000000e0 0.000000e0 0.000000e0 0.000000e0 9.489035e-1 -1.791056e-1 0.000000e0 0.000000e0
7.700000e8 0.000000e0 0.000000e0 0.000000e0 0.000000e0 -5.714858e-5 -2.280497e-4 0.000000e0 0.000000e0
 0.000000e0 0.000000e0 0.000000e0 0.000000e0 1.093070e-4 3.383128e-4 0.000000e0 0.000000e0
 0.000000e0 0.000000e0 0.000000e0 0.000000e0 -2.536564e-2 2.098499e-1 0.000000e0 0.000000e0
 0.000000e0 0.000000e0 0.000000e0 0.000000e0 9.478180e-1 -1.932751e-1 0.000000e0 0.000000e0
7.800000e8 0.000000e0 0.000000e0 0.000000e0 0.000000e0 -6.984881e-5 -2.306887e-4 0.000000e0 0.000000e0
 0.000000e0 0.000000e0 0.000000e0 0.000000e0 1.282785e-4 3.297269e-4 0.000000e0 0.000000e0
 0.000000e0 0.000000e0 0.000000e0 0.000000e0 -2.216530e-2 2.079490e-1 0.000000e0 0.000000e0
 0.000000e0 0.000000e0 0.000000e0 0.000000e0 9.440721e-1 -2.062263e-1 0.000000e0 0.000000e0
7.900000e8 0.000000e0 0.000000e0 0.000000e0 0.000000e0 -7.860365e-5 -2.257379e-4 0.000000e0 0.000000e0
 0.000000e0 0.000000e0 0.000000e0 0.000000e0 1.331698e-4 3.143812e-4 0.000000e0 0.000000e0
 0.000000e0 0.000000e0 0.000000e0 0.000000e0 -1.834290e-2 2.035139e-1 0.000000e0 0.000000e0
 0.000000e0 0.000000e0 0.000000e0 0.000000e0 9.394526e-1 -2.164862e-1 0.000000e0 0.000000e0
8.000000e8 0.000000e0 0.000000e0 0.000000e0 0.000000e0 -7.903950e-5 -2.189758e-4 0.000000e0 0.000000e0
 0.000000e0 0.000000e0 0.000000e0 0.000000e0 1.240821e-4 3.055198e-4 0.000000e0 0.000000e0
 0.000000e0 0.000000e0 0.000000e0 0.000000e0 -1.614171e-2 1.970011e-1 0.000000e0 0.000000e0
 0.000000e0 0.000000e0 0.000000e0 0.000000e0 9.361825e-1 -2.244785e-1 0.000000e0 0.000000e0
8.100000e8 0.000000e0 0.000000e0 0.000000e0 0.000000e0 -7.277557e-5 -2.174362e-4 0.000000e0 0.000000e0
 0.000000e0 0.000000e0 0.000000e0 0.000000e0 1.111917e-4 3.114250e-4 0.000000e0 0.000000e0
 0.000000e0 0.000000e0 0.000000e0 0.000000e0 -1.661201e-2 1.903850e-1 0.000000e0 0.000000e0
 0.000000e0 0.000000e0 0.000000e0 0.000000e0 9.353294e-1 -2.321367e-1 0.000000e0 0.000000e0
8.200000e8 0.000000e0 0.000000e0 0.000000e0 0.000000e0 -6.621749e-5 -2.243761e-4 0.000000e0 0.000000e0
 0.000000e0 0.000000e0 0.000000e0 0.000000e0 1.072454e-4 3.295528e-4 0.000000e0 0.000000e0
 0.000000e0 0.000000e0 0.000000e0 0.000000e0 -1.891924e-2 1.856877e-1 0.000000e0 0.000000e0
 0.000000e0 0.000000e0 0.000000e0 0.000000e0 9.361058e-1 -2.414654e-1 0.000000e0 0.000000e0
8.300000e8 0.000000e0 0.000000e0 0.000000e0 0.000000e0 -6.594288e-5 -2.369846e-4 0.000000e0 0.000000e0
 0.000000e0 0.000000e0 0.000000e0 0.000000e0 1.183452e-4 3.485627e-4 0.000000e0 0.000000e0
 0.000000e0 0.000000e0 0.000000e0 0.000000e0 -2.101986e-2 1.835422e-1 0.000000e0 0.000000e0
 0.000000e0 0.000000e0 0.000000e0 0.000000e0 9.365147e-1 -2.531175e-1 0.000000e0 0.000000e0
8.400000e8 0.000000e0 0.000000e0 0.000000e0 0.000000e0 -7.400366e-5 -2.484435e-4 0.000000e0 0.000000e0
 0.000000e0 0.000000e0 0.000000e0 0.000000e0 1.396810e-4 3.566347e-4 0.000000e0 0.000000e0
 0.000000e0 0.000000e0 0.000000e0 0.000000e0 -2.116270e-2 1.828071e-1 0.000000e0 0.000000e0
 0.000000e0 0.000000e0 0.000000e0 0.000000e0 9.348229e-1 -2.659945e-1 0.000000e0 0.000000e0
8.500000e8 0.000000e0 0.000000e0 0.000000e0 0.000000e0 -8.649925e-5 -2.528324e-4 0.000000e0 0.000000e0
 0.000000e0 0.000000e0 0.000000e0 0.000000e0 1.591859e-4 3.499792e-4 0.000000e0 0.000000e0
 0.000000e0 0.000000e0 0.000000e0 0.000000e0 -1.911449e-2 1.814553e-1 0.000000e0 0.000000e0
 0.000000e0 0.000000e0 0.000000e0 0.000000e0 9.307800e-1 -2.781042e-1 0.000000e0 0.000000e0
8.600000e8 0.000000e0 0.000000e0 0.000000e0 0.000000e0 -9.641237e-5 -2.493538e-4 0.000000e0 0.000000e0
 0.000000e0 0.000000e0 0.000000e0 0.000000e0 1.663424e-4 3.354212e-4 0.000000e0 0.000000e0
 0.000000e0 0.000000e0 0.000000e0 0.000000e0 -1.625441e-2 1.780505e-1 0.000000e0 0.000000e0
 0.000000e0 0.000000e0 0.000000e0 0.000000e0 9.257320e-1 -2.880144e-1 0.000000e0 0.000000e0
8.700000e8 0.000000e0 0.000000e0 0.000000e0 0.000000e0 -9.865024e-5 -2.428653e-4 0.000000e0 0.000000e0
 0.000000e0 0.000000e0 0.000000e0 0.000000e0 1.597208e-4 3.253071e-4 0.000000e0 0.000000e0
 0.000000e0 0.000000e0 0.000000e0 0.000000e0 -1.452154e-2 1.727393e-1 0.000000e0 0.000000e0
 0.000000e0 0.000000e0 0.000000e0 0.000000e0 9.215994e-1 -2.958444e-1 0.000000e0 0.000000e0
8.800000e8 0.000000e0 0.000000e0 0.000000e0 0.000000e0 -9.367345e-5 -2.403662e-4 0.000000e0 0.000000e0
 0.000000e0 0.000000e0 0.000000e0 0.000000e0 1.478502e-4 3.285284e-4 0.000000e0 0.000000e0
 0.000000e0 0.000000e0 0.000000e0 0.000000e0 -1.501155e-2 1.670759e-1 0.000000e0 0.000000e0
 0.000000e0 0.000000e0 0.000000e0 0.000000e0 9.194913e-1 -3.031134e-1 0.000000e0 0.000000e0
8.900000e8 0.000000e0 0.000000e0 0.000000e0 0.000000e0 -8.712736e-5 -2.459774e-4 0.000000e0 0.000000e0
 0.000000e0 0.000000e0 0.000000e0 0.000000e0 1.429099e-4 3.441849e-4 0.000000e0 0.000000e0
 0.000000e0 0.000000e0 0.000000e0 0.000000e0 -1.723376e-2 1.628565e-1 0.000000e0 0.000000e0
 0.000000e0 0.000000e0 0.000000e0 0.000000e0 9.189559e-1 -3.116028e-1 0.000000e0 0.000000e0
9.000000e8 0.000000e0 0.000000e0 0.000000e0 0.000000e0 -8.576856e-5 -2.580175e-4 0.000000e0 0.000000e0
 0.000000e0 0.000000e0 0.000000e0 0.000000e0 1.519045e-4 3.624038e-4 0.000000e0 0.000000e0
 0.000000e0 0.000000e0 0.000000e0 0.000000e0 -1.952659e-2 1.608324e-1 0.000000e0 0.000000e0
 0.000000e0 0.000000e0 0.000000e0 0.000000e0 9.183710e-1 -3.220807e-1 0.000000e0 0.000000e0
9.100000e8 0.000000e0 0.000000e0 0.000000e0 0.000000e0 -9.262696e-5 -2.702486e-4 0.000000e0 0.000000e0
 0.000000e0 0.000000e0 0.000000e0 0.000000e0 1.717144e-4 3.715971e-4 0.000000e0 0.000000e0
 0.000000e0 0.000000e0 0.000000e0 0.000000e0 -2.028604e-2 1.602211e-1 0.000000e0 0.000000e0
 0.000000e0 0.000000e0 0.000000e0 0.000000e0 9.161473e-1 -3.338017e-1 0.000000e0 0.000000e0
9.200000e8 0.000000e0 0.000000e0 0.000000e0 0.000000e0 -1.048676e-4 -2.763716e-4 0.000000e0 0.000000e0
 0.000000e0 0.000000e0 0.000000e0 0.000000e0 1.915132e-4 3.668282e-4 0.000000e0 0.000000e0
 0.000000e0 0.000000e0 0.000000e0 0.000000e0 -1.910028e-2 1.593267e-1 0.000000e0 0.000000e0
 0.000000e0 0.000000e0 0.000000e0 0.000000e0 9.118574e-1 -3.451006e-1 0.000000e0 0.000000e0
9.300000e8 0.000000e0 0.000000e0 0.000000e0 0.000000e0 -1.158612e-4 -2.745339e-4 0.000000e0 0.000000e0
 0.000000e0 0.000000e0 0.000000e0 0.000000e0 2.006857e-4 3.532533e-4 0.000000e0 0.000000e0
 0.000000e0 0.000000e0 0.000000e0 0.000000e0 -1.698964e-2 1.567827e-1 0.000000e0 0.000000e0
 0.000000e0 0.000000e0 0.000000e0 0.000000e0 9.064924e-1 -3.546145e-1 0.000000e0 0.000000e0
9.400000e8 0.000000e0 0.000000e0 0.000000e0 0.000000e0 -1.199559e-4 -2.686272e-4 0.000000e0 0.000000e0
 0.000000e0 0.000000e0 0.000000e0 0.000000e0 1.964648e-4 3.422468e-4 0.000000e0 0.000000e0
 0.000000e0 0.000000e0 0.000000e0 0.000000e0 -1.561966e-2 1.525082e-1 0.000000e0 0.000000e0
 0.000000e0 0.000000e0 0.000000e0 0.000000e0 9.017007e-1 -3.622390e-1 0.000000e0 0.000000e0
9.500000e8 0.000000e0 0.000000e0 0.000000e0 0.000000e0 -1.165196e-4 -2.654651e-4 0.000000e0 0.000000e0
 0.000000e0 0.000000e0 0.000000e0 0.000000e0 1.857972e-4 3.431141e-4 0.000000e0 0.000000e0
 0.000000e0 0.000000e0 0.000000e0 0.000000e0 -1.608862e-2 1.477107e-1 0.000000e0 0.000000e0
 0.000000e0 0.000000e0 0.000000e0 0.000000e0 8.985912e-1 -3.691517e-1 0.000000e0 0.000000e0
9.600000e8 0.000000e0 0.000000e0 0.000000e0 0.000000e0 -1.103640e-4 -2.698868e-4 0.000000e0 0.000000e0
 0.000000e0 0.000000e0 0.000000e0 0.000000e0 1.801871e-4 3.564271e-4 0.000000e0 0.000000e0
 0.000000e0 0.000000e0 0.000000e0 0.000000e0 -1.816849e-2 1.439738e-1 0.000000e0 0.000000e0
 0.000000e0 0.000000e0 0.000000e0 0.000000e0 8.969690e-1 -3.769229e-1 0.000000e0 0.000000e0
9.700000e8 0.000000e0 0.000000e0 0.000000e0 0.000000e0 -1.082669e-4 -2.813040e-4 0.000000e0 0.000000e0
 0.000000e0 0.000000e0 0.000000e0 0.000000e0 1.873441e-4 3.737539e-4 0.000000e0 0.000000e0
 0.000000e0 0.000000e0 0.000000e0 0.000000e0 -2.052008e-2 1.421147e-1 0.000000e0 0.000000e0
 0.000000e0 0.000000e0 0.000000e0 0.000000e0 8.955286e-1 -3.863847e-1 0.000000e0 0.000000e0
9.800000e8 0.000000e0 0.000000e0 0.000000e0 0.000000e0 -1.141095e-4 -2.941560e-4 0.000000e0 0.000000e0
 0.000000e0 0.000000e0 0.000000e0 0.000000e0 2.056955e-4 3.838713e-4 0.000000e0 0.000000e0
 0.000000e0 0.000000e0 0.000000e0 0.000000e0 -2.168920e-2 1.416335e-1 0.000000e0 0.000000e0
 0.000000e0 0.000000e0 0.000000e0 0.000000e0 8.928282e-1 -3.970695e-1 0.000000e0 0.000000e0
9.900000e8 0.000000e0 0.000000e0 0.000000e0 0.000000e0 -1.261160e-4 -3.019219e-4 0.000000e0 0.000000e0
 0.000000e0 0.000000e0 0.000000e0 0.000000e0 2.256666e-4 3.808874e-4 0.000000e0 0.000000e0
 0.000000e0 0.000000e0 0.000000e0 0.000000e0 -2.114402e-2 1.411214e-1 0.000000e0 0.000000e0
 0.000000e0 0.000000e0 0.000000e0 0.000000e0 8.883218e-1 -4.075954e-1 0.000000e0 0.000000e0
1.000000e9 0.000000e0 0.000000e0 0.000000e0 0.000000e0 -1.381603e-4 -3.017972e-4 0.000000e0 0.000000e0
 0.000000e0 0.000000e0 0.000000e0 0.000000e0 2.366977e-4 3.684000e-4 0.000000e0 0.000000e0
 0.000000e0 0.000000e0 0.000000e0 0.000000e0 -1.961499e-2 1.392983e-1 0.000000e0 0.000000e0
 0.000000e0 0.000000e0 0.000000e0 0.000000e0 8.827135e-1 -4.166858e-1 0.000000e0 0.000000e0
1.010000e9 0.000000e0 0.000000e0 0.000000e0 0.000000e0 -1.441821e-4 -2.966842e-4 0.000000e0 0.000000e0
 0.000000e0 0.000000e0 0.000000e0 0.000000e0 2.348638e-4 3.567628e-4 0.000000e0 0.000000e0
 0.000000e0 0.000000e0 0.000000e0 0.000000e0 -1.852366e-2 1.359179e-1 0.000000e0 0.000000e0
 0.000000e0 0.000000e0 0.000000e0 0.000000e0 8.774090e-1 -4.240738e-1 0.000000e0 0.000000e0
1.020000e9 0.000000e0 0.000000e0 0.000000e0 0.000000e0 -1.425335e-4 -2.930812e-4 0.000000e0 0.000000e0
 0.000000e0 0.000000e0 0.000000e0 0.000000e0 2.256038e-4 3.555275e-4 0.000000e0 0.000000e0
 0.000000e0 0.000000e0 0.000000e0 0.000000e0 -1.894233e-2 1.319015e-1 0.000000e0 0.000000e0
 0.000000e0 0.000000e0 0.000000e0 0.000000e0 8.734896e-1 -4.306541e-1 0.000000e0 0.000000e0
1.030000e9 0.000000e0 0.000000e0 0.000000e0 0.000000e0 -1.371408e-4 -2.964051e-4 0.000000e0 0.000000e0
 0.000000e0 0.000000e0 0.000000e0 0.000000e0 2.196660e-4 3.665760e-4 0.000000e0 0.000000e0
 0.000000e0 0.000000e0 0.000000e0 0.000000e0 -2.084292e-2 1.286357e-1 0.000000e0 0.000000e0
 0.000000e0 0.000000e0 0.000000e0 0.000000e0 8.709560e-1 -4.378017e-1 0.000000e0 0.000000e0
1.040000e9 0.000000e0 0.000000e0 0.000000e0 0.000000e0 -1.346641e-4 -3.071118e-4 0.000000e0 0.000000e0
 0.000000e0 0.000000e0 0.000000e0 0.000000e0 2.252905e-4 3.828773e-4 0.000000e0 0.000000e0
 0.000000e0 0.000000e0 0.000000e0 0.000000e0 -2.315843e-2 1.269664e-1 0.000000e0 0.000000e0
 0.000000e0 0.000000e0 0.000000e0 0.000000e0 8.687705e-1 -4.463756e-1 0.000000e0 0.000000e0
1.050000e9 0.000000e0 0.000000e0 0.000000e0 0.000000e0 -1.397102e-4 -3.203930e-4 0.000000e0 0.000000e0
 0.000000e0 0.000000e0 0.000000e0 0.000000e0 2.423124e-4 3.936807e-4 0.000000e0 0.000000e0
 0.000000e0 0.000000e0 0.000000e0 0.000000e0 -2.458157e-2 1.266162e-1 0.000000e0 0.000000e0
 0.000000e0 0.000000e0 0.000000e0 0.000000e0 8.656363e-1 -4.561271e-1 0.000000e0 0.000000e0
1.060000e9 0.000000e0 0.000000e0 0.000000e0 0.000000e0 -1.515408e-4 -3.296483e-4 0.000000e0 0.000000e0
 0.000000e0 0.000000e0 0.000000e0 0.000000e0 2.624037e-4 3.923111e-4 0.000000e0 0.000000e0
 0.000000e0 0.000000e0 0.000000e0 0.000000e0 -2.450379e-2 1.264243e-1 0.000000e0 0.000000e0
 0.000000e0 0.000000e0 0.000000e0 0.000000e0 8.609319e-1 -4.659196e-1 0.000000e0 0.000000e0
1.070000e9 0.000000e0 0.000000e0 0.000000e0 0.000000e0 -1.646283e-4 -3.312274e-4 0.000000e0 0.000000e0
 0.000000e0 0.000000e0 0.000000e0 0.000000e0 2.751882e-4 3.809187e-4 0.000000e0 0.000000e0
 0.000000e0 0.000000e0 0.000000e0 0.000000e0 -2.342129e-2 1.252059e-1 0.000000e0 0.000000e0
 0.000000e0 0.000000e0 0.000000e0 0.000000e0 8.551293e-1 -4.745711e-1 0.000000e0 0.000000e0
1.080000e9 0.000000e0 0.000000e0 0.000000e0 0.000000e0 -1.726438e-4 -3.270366e-4 0.000000e0 0.000000e0
 0.000000e0 0.000000e0 0.000000e0 0.000000e0 2.757468e-4 3.688071e-4 0.000000e0 0.000000e0
 0.000000e0 0.000000e0 0.000000e0 0.000000e0 -2.253912e-2 1.225964e-1 0.000000e0 0.000000e0
 0.000000e0 0.000000e0 0.000000e0 0.000000e0 8.494191e-1 -4.816988e-1 0.000000e0 0.000000e0
1.090000e9 0.000000e0 0.000000e0 0.000000e0 0.000000e0 -1.730059e-4 -3.231481e-4 0.000000e0 0.000000e0
 0.000000e0 0.000000e0 0.000000e0 0.000000e0 2.680900e-4 3.656309e-4 0.000000e0 0.000000e0
 0.000000e0 0.000000e0 0.000000e0 0.000000e0 -2.288500e-2 1.192804e-1 0.000000e0 0.000000e0
 0.000000e0 0.000000e0 0.000000e0 0.000000e0 8.448365e-1 -4.879632e-1 0.000000e0 0.000000e0
1.100000e9 0.000000e0 0.000000e0 0.000000e0 0.000000e0 -1.687226e-4 -3.254236e-4 0.000000e0 0.000000e0
 0.000000e0 0.000000e0 0.000000e0 0.000000e0 2.621496e-4 3.744316e-4 0.000000e0 0.000000e0
 0.000000e0 0.000000e0 0.000000e0 0.000000e0 -2.458214e-2 1.164644e-1 0.000000e0 0.000000e0
 0.000000e0 0.000000e0 0.000000e0 0.000000e0 8.415304e-1 -4.945603e-1 0.000000e0 0.000000e0
1.110000e9 0.000000e0 0.000000e0 0.000000e0 0.000000e0 -1.662129e-4 -3.353056e-4 0.000000e0 0.000000e0
 0.000000e0 0.000000e0 0.000000e0 0.000000e0 2.665436e-4 3.895319e-4 0.000000e0 0.000000e0
 0.000000e0 0.000000e0 0.000000e0 0.000000e0 -2.679344e-2 1.149964e-1 0.000000e0 0.000000e0
 0.000000e0 0.000000e0 0.000000e0 0.000000e0 8.386897e-1 -5.023500e-1 0.000000e0 0.000000e0
1.120000e9 0.000000e0 0.000000e0 0.000000e0 0.000000e0 -1.706883e-4 -3.487957e-4 0.000000e0 0.000000e0
 0.000000e0 0.000000e0 0.000000e0 0.000000e0 2.823840e-4 4.007398e-4 0.000000e0 0.000000e0
 0.000000e0 0.000000e0 0.000000e0 0.000000e0 -2.835225e-2 1.147740e-1 0.000000e0 0.000000e0
 0.000000e0 0.000000e0 0.000000e0 0.000000e0 8.351570e-1 -5.112559e-1 0.000000e0 0.000000e0
1.130000e9 0.000000e0 0.000000e0 0.000000e0 0.000000e0 -1.824161e-4 -3.593434e-4 0.000000e0 0.000000e0
 0.000000e0 0.000000e0 0.000000e0 0.000000e0 3.025736e-4 4.007505e-4 0.000000e0 0.000000e0
 0.000000e0 0.000000e0 0.000000e0 0.000000e0 -2.860524e-2 1.148505e-1 0.000000e0 0.000000e0
 0.000000e0 0.000000e0 0.000000e0 0.000000e0 8.302665e-1 -5.203531e-1 0.000000e0 0.000000e0
1.140000e9 0.000000e0 0.000000e0 0.000000e0 0.000000e0 -1.965449e-4 -3.625576e-4 0.000000e0 0.000000e0
 0.000000e0 0.000000e0 0.000000e0 0.000000e0 3.170263e-4 3.903736e-4 0.000000e0 0.000000e0
 0.000000e0 0.000000e0 0.000000e0 0.000000e0 -2.785926e-2 1.141396e-1 0.000000e0 0.000000e0
 0.000000e0 0.000000e0 0.000000e0 0.000000e0 8.243029e-1 -5.285579e-1 0.000000e0 0.000000e0
1.150000e9 0.000000e0 0.000000e0 0.000000e0 0.000000e0 -2.066072e-4 -3.593550e-4 0.000000e0 0.000000e0
 0.000000e0 0.000000e0 0.000000e0 0.000000e0 3.199766e-4 3.778470e-4 0.000000e0 0.000000e0
 0.000000e0 0.000000e0 0.000000e0 0.000000e0 -2.712783e-2 1.121946e-1 0.000000e0 0.000000e0
 0.000000e0 0.000000e0 0.000000e0 0.000000e0 8.182662e-1 -5.354067e-1 0.000000e0 0.000000e0
1.160000e9 0.000000e0 0.000000e0 0.000000e0 0.000000e0 -2.091737e-4 -3.552860e-4 0.000000e0 0.000000e0
 0.000000e0 0.000000e0 0.000000e0 0.000000e0 3.140862e-4 3.728059e-4 0.000000e0 0.000000e0
 0.000000e0 0.000000e0 0.000000e0 0.000000e0 -2.738241e-2 1.095041e-1 0.000000e0 0.000000e0
 0.000000e0 0.000000e0 0.000000e0 0.000000e0 8.131344e-1 -5.413662e-1 0.000000e0 0.000000e0
1.170000e9 0.000000e0 0.000000e0 0.000000e0 0.000000e0 -2.063142e-4 -3.565322e-4 0.000000e0 0.000000e0
 0.000000e0 0.000000e0 0.000000e0 0.000000e0 3.084252e-4 3.793144e-4 0.000000e0 0.000000e0
 0.000000e0 0.000000e0 0.000000e0 0.000000e0 -2.885960e-2 1.071105e-1 0.000000e0 0.000000e0
 0.000000e0 0.000000e0 0.000000e0 0.000000e0 8.091674e-1 -5.474691e-1 0.000000e0 0.000000e0
1.180000e9 0.000000e0 0.000000e0 0.000000e0 0.000000e0 -2.040985e-4 -3.654592e-4 0.000000e0 0.000000e0
 0.000000e0 0.000000e0 0.000000e0 0.000000e0 3.118570e-4 3.929981e-4 0.000000e0 0.000000e0
 0.000000e0 0.000000e0 0.000000e0 0.000000e0 -3.091666e-2 1.058459e-1 0.000000e0 0.000000e0
 0.000000e0 0.000000e0 0.000000e0 0.000000e0 8.057461e-1 -5.545584e-1 0.000000e0 0.000000e0
1.190000e9 0.000000e0 0.000000e0 0.000000e0 0.000000e0 -2.082261e-4 -3.789221e-4 0.000000e0 0.000000e0
 0.000000e0 0.000000e0 0.000000e0 0.000000e0 3.266485e-4 4.042940e-4 0.000000e0 0.000000e0
 0.000000e0 0.000000e0 0.000000e0 0.000000e0 -3.251960e-2 1.057446e-1 0.000000e0 0.000000e0
 0.000000e0 0.000000e0 0.000000e0 0.000000e0 8.018446e-1 -5.626925e-1 0.000000e0 0.000000e0
1.200000e9 0.000000e0 0.000000e0 0.000000e0 0.000000e0 -2.199302e-4 -3.905367e-4 0.000000e0 0.000000e0
 0.000000e0 0.000000e0 0.000000e0 0.000000e0 3.469116e-4 4.054042e-4 0.000000e0 0.000000e0
 0.000000e0 0.000000e0 0.000000e0 0.000000e0 -3.299393e-2 1.060450e-1 0.000000e0 0.000000e0
 0.000000e0 0.000000e0 0.000000e0 0.000000e0 7.967767e-1 -5.711298e-1 0.000000e0 0.000000e0
1.210000e9 0.000000e0 0.000000e0 0.000000e0 0.000000e0 -2.351002e-4 -3.952747e-4 0.000000e0 0.000000e0
 0.000000e0 0.000000e0 0.000000e0 0.000000e0 3.629409e-4 3.958986e-4 0.000000e0 0.000000e0
 0.000000e0 0.000000e0 0.000000e0 0.000000e0 -3.249363e-2 1.057591e-1 0.000000e0 0.000000e0
 0.000000e0 0.000000e0 0.000000e0 0.000000e0 7.906753e-1 -5.788846e-1 0.000000e0 0.000000e0
1.220000e9 0.000000e0 0.000000e0 0.000000e0 0.000000e0 -2.472492e-4 -3.930782e-4 0.000000e0 0.000000e0
 0.000000e0 0.000000e0 0.000000e0 0.000000e0 3.682575e-4 3.829433e-4 0.000000e0 0.000000e0
 0.000000e0 0.000000e0 0.000000e0 0.000000e0 -3.186311e-2 1.043854e-1 0.000000e0 0.000000e0
 0.000000e0 0.000000e0 0.000000e0 0.000000e0 7.843719e-1 -5.854398e-1 0.000000e0 0.000000e0
1.230000e9 0.000000e0 0.000000e0 0.000000e0 0.000000e0 -2.521864e-4 -3.888937e-4 0.000000e0 0.000000e0
 0.000000e0 0.000000e0 0.000000e0 0.000000e0 3.642514e-4 3.760478e-4 0.000000e0 0.000000e0
 0.000000e0 0.000000e0 0.000000e0 0.000000e0 -3.201065e-2 1.022505e-1 0.000000e0 0.000000e0
 0.000000e0 0.000000e0 0.000000e0 0.000000e0 7.787809e-1 -5.911010e-1 0.000000e0 0.000000e0
1.240000e9 0.000000e0 0.000000e0 0.000000e0 0.000000e0 -2.510338e-4 -3.891053e-4 0.000000e0 0.000000e0
 0.000000e0 0.000000e0 0.000000e0 0.000000e0 3.590978e-4 3.801744e-4 0.000000e0 0.000000e0
 0.000000e0 0.000000e0 0.000000e0 0.000000e0 -3.325659e-2 1.002481e-1 0.000000e0 0.000000e0
 0.000000e0 0.000000e0 0.000000e0 0.000000e0 7.742439e-1 -5.967532e-1 0.000000e0 0.000000e0
1.250000e9 0.000000e0 0.000000e0 0.000000e0 0.000000e0 -2.494160e-4 -3.969354e-4 0.000000e0 0.000000e0
 0.000000e0 0.000000e0 0.000000e0 0.000000e0 3.617887e-4 3.922004e-4 0.000000e0 0.000000e0
 0.000000e0 0.000000e0 0.000000e0 0.000000e0 -3.512259e-2 9.918162e-2 0.000000e0 0.000000e0
 0.000000e0 0.000000e0 0.000000e0 0.000000e0 7.703048e-1 -6.032099e-1 0.000000e0 0.000000e0
1.260000e9 0.000000e0 0.000000e0 0.000000e0 0.000000e0 -2.534087e-4 -4.101254e-4 0.000000e0 0.000000e0
 0.000000e0 0.000000e0 0.000000e0 0.000000e0 3.756350e-4 4.032490e-4 0.000000e0 0.000000e0
 0.000000e0 0.000000e0 0.000000e0 0.000000e0 -3.669851e-2 9.919194e-2 0.000000e0 0.000000e0
 0.000000e0 0.000000e0 0.000000e0 0.000000e0 7.660606e-1 -6.106346e-1 0.000000e0 0.000000e0
1.270000e9 0.000000e0 0.000000e0 0.000000e0 0.000000e0 -2.651663e-4 -4.225636e-4 0.000000e0 0.000000e0
 0.000000e0 0.000000e0 0.000000e0 0.000000e0 3.959323e-4 4.051501e-4 0.000000e0 0.000000e0
 0.000000e0 0.000000e0 0.000000e0 0.000000e0 -3.730609e-2 9.967706e-2 0.000000e0 0.000000e0
 0.000000e0 0.000000e0 0.000000e0 0.000000e0 7.608218e-1 -6.184441e-1 0.000000e0 0.000000e0
1.280000e9 0.000000e0 0.000000e0 0.000000e0 0.000000e0 -2.813732e-4 -4.286857e-4 0.000000e0 0.000000e0
 0.000000e0 0.000000e0 0.000000e0 0.000000e0 4.134329e-4 3.963277e-4 0.000000e0 0.000000e0
 0.000000e0 0.000000e0 0.000000e0 0.000000e0 -3.697606e-2 9.974519e-2 0.000000e0 0.000000e0
 0.000000e0 0.000000e0 0.000000e0 0.000000e0 7.545990e-1 -6.257488e-1 0.000000e0 0.000000e0
1.290000e9 0.000000e0 0.000000e0 0.000000e0 0.000000e0 -2.956339e-4 -4.274811e-4 0.000000e0 0.000000e0
 0.000000e0 0.000000e0 0.000000e0 0.000000e0 4.210640e-4 3.828752e-4 0.000000e0 0.000000e0
 0.000000e0 0.000000e0 0.000000e0 0.000000e0 -3.640366e-2 9.886085e-2 0.000000e0 0.000000e0
 0.000000e0 0.000000e0 0.000000e0 0.000000e0 7.480748e-1 -6.319982e-1 0.000000e0 0.000000e0
1.300000e9 0.000000e0 0.000000e0 0.000000e0 0.000000e0 -3.030826e-4 -4.232209e-4 0.000000e0 0.000000e0
 0.000000e0 0.000000e0 0.000000e0 0.000000e0 4.190163e-4 3.740841e-4 0.000000e0 0.000000e0
 0.000000e0 0.000000e0 0.000000e0 0.000000e0 -3.643046e-2 9.721635e-2 0.000000e0 0.000000e0
 0.000000e0 0.000000e0 0.000000e0 0.000000e0 7.420963e-1 -6.373649e-1 0.000000e0 0.000000e0
1.310000e9 0.000000e0 0.000000e0 0.000000e0 0.000000e0 -3.038925e-4 -4.223802e-4 0.000000e0 0.000000e0
 0.000000e0 0.000000e0 0.000000e0 0.000000e0 4.145439e-4 3.757024e-4 0.000000e0 0.000000e0
 0.000000e0 0.000000e0 0.000000e0 0.000000e0 -3.743724e-2 9.557158e-2 0.000000e0 0.000000e0
 0.000000e0 0.000000e0 0.000000e0 0.000000e0 7.370644e-1 -6.425999e-1 0.000000e0 0.000000e0
1.320000e9 0.000000e0 0.000000e0 0.000000e0 0.000000e0 -3.031560e-4 -4.289698e-4 0.000000e0 0.000000e0
 0.000000e0 0.000000e0 0.000000e0 0.000000e0 4.166649e-4 3.858097e-4 0.000000e0 0.000000e0
 0.000000e0 0.000000e0 0.000000e0 0.000000e0 -3.908485e-2 9.469247e-2 0.000000e0 0.000000e0
 0.000000e0 0.000000e0 0.000000e0 0.000000e0 7.326608e-1 -6.484788e-1 0.000000e0 0.000000e0
1.330000e9 0.000000e0 0.000000e0 0.000000e0 0.000000e0 -3.072186e-4 -4.416418e-4 0.000000e0 0.000000e0
 0.000000e0 0.000000e0 0.000000e0 0.000000e0 4.296323e-4 3.962644e-4 0.000000e0 0.000000e0
 0.000000e0 0.000000e0 0.000000e0 0.000000e0 -4.057799e-2 9.480211e-2 0.000000e0 0.000000e0
 0.000000e0 0.000000e0 0.000000e0 0.000000e0 7.280973e-1 -6.552464e-1 0.000000e0 0.000000e0
1.340000e9 0.000000e0 0.000000e0 0.000000e0 0.000000e0 -3.191077e-4 -4.546545e-4 0.000000e0 0.000000e0
 0.000000e0 0.000000e0 0.000000e0 0.000000e0 4.499007e-4 3.986319e-4 0.000000e0 0.000000e0
 0.000000e0 0.000000e0 0.000000e0 0.000000e0 -4.124738e-2 9.543657e-2 0.000000e0 0.000000e0
 0.000000e0 0.000000e0 0.000000e0 0.000000e0 7.226934e-1 -6.624567e-1 0.000000e0 0.000000e0
1.350000e9 0.000000e0 0.000000e0 0.000000e0 0.000000e0 -3.363474e-4 -4.620055e-4 0.000000e0 0.000000e0
 0.000000e0 0.000000e0 0.000000e0 0.000000e0 4.687472e-4 3.902768e-4 0.000000e0 0.000000e0
 0.000000e0 0.000000e0 0.000000e0 0.000000e0 -4.102468e-2 9.579644e-2 0.000000e0 0.000000e0
 0.000000e0 0.000000e0 0.000000e0 0.000000e0 7.163612e-1 -6.693128e-1 0.000000e0 0.000000e0
1.360000e9 0.000000e0 0.000000e0 0.000000e0 0.000000e0 -3.527380e-4 -4.617588e-4 0.000000e0 0.000000e0
 0.000000e0 0.000000e0 0.000000e0 0.000000e0 4.786126e-4 3.762208e-4 0.000000e0 0.000000e0
 0.000000e0 0.000000e0 0.000000e0 0.000000e0 -4.047360e-2 9.532831e-2 0.000000e0 0.000000e0
 0.000000e0 0.000000e0 0.000000e0 0.000000e0 7.096520e-1 -6.752465e-1 0.000000e0 0.000000e0
1.370000e9 0.000000e0 0.000000e0 0.000000e0 0.000000e0 -3.628242e-4 -4.574465e-4 0.000000e0 0.000000e0
 0.000000e0 0.000000e0 0.000000e0 0.000000e0 4.785560e-4 3.654560e-4 0.000000e0 0.000000e0
 0.000000e0 0.000000e0 0.000000e0 0.000000e0 -4.036771e-2 9.411345e-2 0.000000e0 0.000000e0
 0.000000e0 0.000000e0 0.000000e0 0.000000e0 7.033440e-1 -6.803200e-1 0.000000e0 0.000000e0
1.380000e9 0.000000e0 0.000000e0 0.000000e0 0.000000e0 -3.658351e-4 -4.555288e-4 0.000000e0 0.000000e0
 0.000000e0 0.000000e0 0.000000e0 0.000000e0 4.748887e-4 3.644138e-4 0.000000e0 0.000000e0
 0.000000e0 0.000000e0 0.000000e0 0.000000e0 -4.112997e-2 9.279104e-2 0.000000e0 0.000000e0
 0.000000e0 0.000000e0 0.000000e0 0.000000e0 6.978796e-1 -6.851635e-1 0.000000e0 0.000000e0
1.390000e9 0.000000e0 0.000000e0 0.000000e0 0.000000e0 -3.662518e-4 -4.607357e-4 0.000000e0 0.000000e0
 0.000000e0 0.000000e0 0.000000e0 0.000000e0 4.765628e-4 3.723301e-4 0.000000e0 0.000000e0
 0.000000e0 0.000000e0 0.000000e0 0.000000e0 -4.253919e-2 9.208400e-2 0.000000e0 0.000000e0
 0.000000e0 0.000000e0 0.000000e0 0.000000e0 6.930578e-1 -6.905091e-1 0.000000e0 0.000000e0
1.400000e9 0.000000e0 0.000000e0 0.000000e0 0.000000e0 -3.705867e-4 -4.726475e-4 0.000000e0 0.000000e0
 0.000000e0 0.000000e0 0.000000e0 0.000000e0 4.886816e-4 3.818408e-4 0.000000e0 0.000000e0
 0.000000e0 0.000000e0 0.000000e0 0.000000e0 -4.390602e-2 9.227818e-2 0.000000e0 0.000000e0
 0.000000e0 0.000000e0 0.000000e0 0.000000e0 6.881961e-1 -6.966636e-1 0.000000e0 0.000000e0
1.410000e9 0.000000e0 0.000000e0 0.000000e0 0.000000e0 -3.826895e-4 -4.859834e-4 0.000000e0 0.000000e0
 0.000000e0 0.000000e0 0.000000e0 0.000000e0 5.088343e-4 3.843444e-4 0.000000e0 0.000000e0
 0.000000e0 0.000000e0 0.000000e0 0.000000e0 -4.457945e-2 9.302903e-2 0.000000e0 0.000000e0
 0.000000e0 0.000000e0 0.000000e0 0.000000e0 6.826327e-1 -7.033003e-1 0.000000e0 0.000000e0
1.420000e9 0.000000e0 0.000000e0 0.000000e0 0.000000e0 -4.009625e-4 -4.943995e-4 0.000000e0 0.000000e0
 0.000000e0 0.000000e0 0.000000e0 0.000000e0 5.288834e-4 3.762244e-4 0.000000e0 0.000000e0
 0.000000e0 0.000000e0 0.000000e0 0.000000e0 -4.441184e-2 9.362516e-2 0.000000e0 0.000000e0
 0.000000e0 0.000000e0 0.000000e0 0.000000e0 6.762006e-1 -7.097101e-1 0.000000e0 0.000000e0
1.430000e9 0.000000e0 0.000000e0 0.000000e0 0.000000e0 -4.195005e-4 -4.950645e-4 0.000000e0 0.000000e0
 0.000000e0 0.000000e0 0.000000e0 0.000000e0 5.408814e-4 3.614329e-4 0.000000e0 0.000000e0
 0.000000e0 0.000000e0 0.000000e0 0.000000e0 -4.385081e-2 9.350747e-2 0.000000e0 0.000000e0
 0.000000e0 0.000000e0 0.000000e0 0.000000e0 6.693345e-1 -7.153199e-1 0.000000e0 0.000000e0
1.440000e9 0.000000e0 0.000000e0 0.000000e0 0.000000e0 -4.323440e-4 -4.907144e-4 0.000000e0 0.000000e0
 0.000000e0 0.000000e0 0.000000e0 0.000000e0 5.428170e-4 3.485878e-4 0.000000e0 0.000000e0
 0.000000e0 0.000000e0 0.000000e0 0.000000e0 -4.360216e-2 9.266537e-2 0.000000e0 0.000000e0
 0.000000e0 0.000000e0 0.000000e0 0.000000e0 6.627446e-1 -7.200999e-1 0.000000e0 0.000000e0
1.450000e9 0.000000e0 0.000000e0 0.000000e0 0.000000e0 -4.377867e-4 -4.876931e-4 0.000000e0 0.000000e0
 0.000000e0 0.000000e0 0.000000e0 0.000000e0 5.400392e-4 3.447107e-4 0.000000e0 0.000000e0
 0.000000e0 0.000000e0 0.000000e0 0.000000e0 -4.411663e-2 9.162934e-2 0.000000e0 0.000000e0
 0.000000e0 0.000000e0 0.000000e0 0.000000e0 6.569003e-1 -7.245716e-1 0.000000e0 0.000000e0
1.460000e9 0.000000e0 0.000000e0 0.000000e0 0.000000e0 -4.396257e-4 -4.913794e-4 0.000000e0 0.000000e0
 0.000000e0 0.000000e0 0.000000e0 0.000000e0 5.413501e-4 3.501516e-4 0.000000e0 0.000000e0
 0.000000e0 0.000000e0 0.000000e0 0.000000e0 -4.527300e-2 9.107579e-2 0.000000e0 0.000000e0
 0.000000e0 0.000000e0 0.000000e0 0.000000e0 6.517003e-1 -7.294199e-1 0.000000e0 0.000000e0
1.470000e9 0.000000e0 0.000000e0 0.000000e0 0.000000e0 -4.444401e-4 -5.022948e-4 0.000000e0 0.000000e0
 0.000000e0 0.000000e0 0.000000e0 0.000000e0 5.526189e-4 3.583632e-4 0.000000e0 0.000000e0
 0.000000e0 0.000000e0 0.000000e0 0.000000e0 -4.647954e-2 9.133759e-2 0.000000e0 0.000000e0
 0.000000e0 0.000000e0 0.000000e0 0.000000e0 6.465598e-1 -7.349982e-1 0.000000e0 0.000000e0
1.480000e9 0.000000e0 0.000000e0 0.000000e0 0.000000e0 -4.568492e-4 -5.157057e-4 0.000000e0 0.000000e0
 0.000000e0 0.000000e0 0.000000e0 0.000000e0 5.725481e-4 3.606663e-4 0.000000e0 0.000000e0
 0.000000e0 0.000000e0 0.000000e0 0.000000e0 -4.711020e-2 9.217358e-2 0.000000e0 0.000000e0
 0.000000e0 0.000000e0 0.000000e0 0.000000e0 6.408423e-1 -7.410832e-1 0.000000e0 0.000000e0
1.490000e9 0.000000e0 0.000000e0 0.000000e0 0.000000e0 -4.761678e-4 -5.250210e-4 0.000000e0 0.000000e0
 0.000000e0 0.000000e0 0.000000e0 0.000000e0 5.936417e-4 3.525350e-4 0.000000e0 0.000000e0
 0.000000e0 0.000000e0 0.000000e0 0.000000e0 -4.695430e-2 9.295559e-2 0.000000e0 0.000000e0
 0.000000e0 0.000000e0 0.000000e0 0.000000e0 6.343177e-1 -7.470496e-1 0.000000e0 0.000000e0
1.500000e9 0.000000e0 0.000000e0 0.000000e0 0.000000e0 -4.968800e-4 -5.265476e-4 0.000000e0 0.000000e0
 0.000000e0 0.000000e0 0.000000e0 0.000000e0 6.076535e-4 3.368519e-4 0.000000e0 0.000000e0
 0.000000e0 0.000000e0 0.000000e0 0.000000e0 -4.635696e-2 9.312823e-2 0.000000e0 0.000000e0
 0.000000e0 0.000000e0 0.000000e0 0.000000e0 6.273177e-1 -7.523282e-1 0.000000e0 0.000000e0
1.510000e9 0.000000e0 0.000000e0 0.000000e0 0.000000e0 -5.126075e-4 -5.221726e-4 0.000000e0 0.000000e0
 0.000000e0 0.000000e0 0.000000e0 0.000000e0 6.115578e-4 3.217914e-4 0.000000e0 0.000000e0
 0.000000e0 0.000000e0 0.000000e0 0.000000e0 -4.595746e-2 9.260515e-2 0.000000e0 0.000000e0
 0.000000e0 0.000000e0 0.000000e0 0.000000e0 6.204854e-1 -7.568133e-1 0.000000e0 0.000000e0
1.520000e9 0.000000e0 0.000000e0 0.000000e0 0.000000e0 -5.207216e-4 -5.180244e-4 0.000000e0 0.000000e0
 0.000000e0 0.000000e0 0.000000e0 0.000000e0 6.097214e-4 3.148794e-4 0.000000e0 0.000000e0
 0.000000e0 0.000000e0 0.000000e0 0.000000e0 -4.622292e-2 9.181897e-2 0.000000e0 0.000000e0
 0.000000e0 0.000000e0 0.000000e0 0.000000e0 6.143059e-1 -7.609279e-1 0.000000e0 0.000000e0
1.530000e9 0.000000e0 0.000000e0 0.000000e0 0.000000e0 -5.242663e-4 -5.200590e-4 0.000000e0 0.000000e0
 0.000000e0 0.000000e0 0.000000e0 0.000000e0 6.107170e-4 3.175425e-4 0.000000e0 0.000000e0
 0.000000e0 0.000000e0 0.000000e0 0.000000e0 -4.711685e-2 9.139762e-2 0.000000e0 0.000000e0
 0.000000e0 0.000000e0 0.000000e0 0.000000e0 6.087629e-1 -7.653080e-1 0.000000e0 0.000000e0
1.540000e9 0.000000e0 0.000000e0 0.000000e0 0.000000e0 -5.297886e-4 -5.297477e-4 0.000000e0 0.000000e0
 0.000000e0 0.000000e0 0.000000e0 0.000000e0 6.211025e-4 3.240893e-4 0.000000e0 0.000000e0
 0.000000e0 0.000000e0 0.000000e0 0.000000e0 -4.813722e-2 9.170825e-2 0.000000e0 0.000000e0
 0.000000e0 0.000000e0 0.000000e0 0.000000e0 6.033616e-1 -7.703409e-1 0.000000e0 0.000000e0
1.550000e9 0.000000e0 0.000000e0 0.000000e0 0.000000e0 -5.426227e-4 -5.429862e-4 0.000000e0 0.000000e0
 0.000000e0 0.000000e0 0.000000e0 0.000000e0 6.406763e-4 3.258468e-4 0.000000e0 0.000000e0
 0.000000e0 0.000000e0 0.000000e0 0.000000e0 -4.868775e-2 9.259932e-2 0.000000e0 0.000000e0
 0.000000e0 0.000000e0 0.000000e0 0.000000e0 5.974957e-1 -7.758936e-1 0.000000e0 0.000000e0
1.560000e9 0.000000e0 0.000000e0 0.000000e0 0.000000e0 -5.630258e-4 -5.530310e-4 0.000000e0 0.000000e0
 0.000000e0 0.000000e0 0.000000e0 0.000000e0 6.626390e-4 3.174448e-4 0.000000e0 0.000000e0
 0.000000e0 0.000000e0 0.000000e0 0.000000e0 -4.850806e-2 9.352100e-2 0.000000e0 0.000000e0
 0.000000e0 0.000000e0 0.000000e0 0.000000e0 5.908850e-1 -7.814194e-1 0.000000e0 0.000000e0
1.570000e9 0.000000e0 0.000000e0 0.000000e0 0.000000e0 -5.859635e-4 -5.553629e-4 0.000000e0 0.000000e0
 0.000000e0 0.000000e0 0.000000e0 0.000000e0 6.785306e-4 3.006940e-4 0.000000e0 0.000000e0
 0.000000e0 0.000000e0 0.000000e0 0.000000e0 -4.785270e-2 9.392878e-2 0.000000e0 0.000000e0
 0.000000e0 0.000000e0 0.000000e0 0.000000e0 5.837701e-1 -7.863604e-1 0.000000e0 0.000000e0
1.580000e9 0.000000e0 0.000000e0 0.000000e0 0.000000e0 -6.047250e-4 -5.509710e-4 0.000000e0 0.000000e0
 0.000000e0 0.000000e0 0.000000e0 0.000000e0 6.843611e-4 2.832571e-4 0.000000e0 0.000000e0
 0.000000e0 0.000000e0 0.000000e0 0.000000e0 -4.729633e-2 9.367394e-2 0.000000e0 0.000000e0
 0.000000e0 0.000000e0 0.000000e0 0.000000e0 5.767283e-1 -7.905482e-1 0.000000e0 0.000000e0
1.590000e9 0.000000e0 0.000000e0 0.000000e0 0.000000e0 -6.157746e-4 -5.456706e-4 0.000000e0 0.000000e0
 0.000000e0 0.000000e0 0.000000e0 0.000000e0 6.834929e-4 2.730834e-4 0.000000e0 0.000000e0
 0.000000e0 0.000000e0 0.000000e0 0.000000e0 -4.731340e-2 9.310097e-2 0.000000e0 0.000000e0
 0.000000e0 0.000000e0 0.000000e0 0.000000e0 5.702519e-1 -7.943168e-1 0.000000e0 0.000000e0
1.600000e9 0.000000e0 0.000000e0 0.000000e0 0.000000e0 -6.213374e-4 -5.459214e-4 0.000000e0 0.000000e0
 0.000000e0 0.000000e0 0.000000e0 0.000000e0 6.841931e-4 2.726436e-4 0.000000e0 0.000000e0
 0.000000e0 0.000000e0 0.000000e0 0.000000e0 -4.793927e-2 9.278843e-2 0.000000e0 0.000000e0
 0.000000e0 0.000000e0 0.000000e0 0.000000e0 5.643969e-1 -7.982519e-1 0.000000e0 0.000000e0
1.610000e9 0.000000e0 0.000000e0 0.000000e0 0.000000e0 -6.278301e-4 -5.541502e-4 0.000000e0 0.000000e0
 0.000000e0 0.000000e0 0.000000e0 0.000000e0 6.936350e-4 2.771416e-4 0.000000e0 0.000000e0
 0.000000e0 0.000000e0 0.000000e0 0.000000e0 -4.875432e-2 9.312747e-2 0.000000e0 0.000000e0
 0.000000e0 0.000000e0 0.000000e0 0.000000e0 5.587516e-1 -8.027652e-1 0.000000e0 0.000000e0
1.620000e9 0.000000e0 0.000000e0 0.000000e0 0.000000e0 -6.412448e-4 -5.669626e-4 0.000000e0 0.000000e0
 0.000000e0 0.000000e0 0.000000e0 0.000000e0 7.126999e-4 2.779926e-4 0.000000e0 0.000000e0
 0.000000e0 0.000000e0 0.000000e0 0.000000e0 -4.919537e-2 9.404425e-2 0.000000e0 0.000000e0
 0.000000e0 0.000000e0 0.000000e0 0.000000e0 5.527431e-1 -8.078017e-1 0.000000e0 0.000000e0
1.630000e9 0.000000e0 0.000000e0 0.000000e0 0.000000e0 -6.628079e-4 -5.775572e-4 0.000000e0 0.000000e0
 0.000000e0 0.000000e0 0.000000e0 0.000000e0 7.353406e-4 2.690429e-4 0.000000e0 0.000000e0
 0.000000e0 0.000000e0 0.000000e0 0.000000e0 -4.896341e-2 9.506258e-2 0.000000e0 0.000000e0
 0.000000e0 0.000000e0 0.000000e0 0.000000e0 5.460523e-1 -8.128894e-1 0.000000e0 0.000000e0
1.640000e9 0.000000e0 0.000000e0 0.000000e0 0.000000e0 -6.880580e-4 -5.806277e-4 0.000000e0 0.000000e0
 0.000000e0 0.000000e0 0.000000e0 0.000000e0 7.529661e-4 2.510244e-4 0.000000e0 0.000000e0
 0.000000e0 0.000000e0 0.000000e0 0.000000e0 -4.823281e-2 9.565426e-2 0.000000e0 0.000000e0
 0.000000e0 0.000000e0 0.000000e0 0.000000e0 5.388384e-1 -8.174869e-1 0.000000e0 0.000000e0
1.650000e9 0.000000e0 0.000000e0 0.000000e0 0.000000e0 -7.100392e-4 -5.762185e-4 0.000000e0 0.000000e0
 0.000000e0 0.000000e0 0.000000e0 0.000000e0 7.606678e-4 2.310194e-4 0.000000e0 0.000000e0
 0.000000e0 0.000000e0 0.000000e0 0.000000e0 -4.751586e-2 9.561948e-2 0.000000e0 0.000000e0
 0.000000e0 0.000000e0 0.000000e0 0.000000e0 5.316154e-1 -8.213741e-1 0.000000e0 0.000000e0
1.660000e9 0.000000e0 0.000000e0 0.000000e0 0.000000e0 -7.243283e-4 -5.697345e-4 0.000000e0 0.000000e0
 0.000000e0 0.000000e0 0.000000e0 0.000000e0 7.607777e-4 2.173211e-4 0.000000e0 0.000000e0
 0.000000e0 0.000000e0 0.000000e0 0.000000e0 -4.728719e-2 9.522322e-2 0.000000e0 0.000000e0
 0.000000e0 0.000000e0 0.000000e0 0.000000e0 5.248756e-1 -8.248046e-1 0.000000e0 0.000000e0
1.670000e9 0.000000e0 0.000000e0 0.000000e0 0.000000e0 -7.322679e-4 -5.680628e-4 0.000000e0 0.000000e0
 0.000000e0 0.000000e0 0.000000e0 0.000000e0 7.611786e-4 2.134162e-4 0.000000e0 0.000000e0
 0.000000e0 0.000000e0 0.000000e0 0.000000e0 -4.764302e-2 9.499458e-2 0.000000e0 0.000000e0
 0.000000e0 0.000000e0 0.000000e0 0.000000e0 5.187362e-1 -8.283136e-1 0.000000e0 0.000000e0
1.680000e9 0.000000e0 0.000000e0 0.000000e0 0.000000e0 -7.400457e-4 -5.745876e-4 0.000000e0 0.000000e0
 0.000000e0 0.000000e0 0.000000e0 0.000000e0 7.695887e-4 2.154485e-4 0.000000e0 0.000000e0
 0.000000e0 0.000000e0 0.000000e0 0.000000e0 -4.823948e-2 9.534030e-2 0.000000e0 0.000000e0
 0.000000e0 0.000000e0 0.000000e0 0.000000e0 5.128626e-1 -8.323285e-1 0.000000e0 0.000000e0
1.690000e9 0.000000e0 0.000000e0 0.000000e0 0.000000e0 -7.542511e-4 -5.867017e-4 0.000000e0 0.000000e0
 0.000000e0 0.000000e0 0.000000e0 0.000000e0 7.879631e-4 2.150051e-4 0.000000e0 0.000000e0
 0.000000e0 0.000000e0 0.000000e0 0.000000e0 -4.854875e-2 9.625404e-2 0.000000e0 0.000000e0
 0.000000e0 0.000000e0 0.000000e0 0.000000e0 5.067175e-1 -8.368626e-1 0.000000e0 0.000000e0
1.700000e9 0.000000e0 0.000000e0 0.000000e0 0.000000e0 -7.771026e-4 -5.976425e-4 0.000000e0 0.000000e0
 0.000000e0 0.000000e0 0.000000e0 0.000000e0 8.110682e-4 2.052079e-4 0.000000e0 0.000000e0
 0.000000e0 0.000000e0 0.000000e0 0.000000e0 -4.824235e-2 9.732863e-2 0.000000e0 0.000000e0
 0.000000e0 0.000000e0 0.000000e0 0.000000e0 4.999519e-1 -8.415142e-1 0.000000e0 0.000000e0
1.710000e9 0.000000e0 0.000000e0 0.000000e0 0.000000e0 -8.048009e-4 -6.013588e-4 0.000000e0 0.000000e0
 0.000000e0 0.000000e0 0.000000e0 0.000000e0 8.302671e-4 1.856985e-4 0.000000e0 0.000000e0
 0.000000e0 0.000000e0 0.000000e0 0.000000e0 -4.742358e-2 9.805636e-2 0.000000e0 0.000000e0
 0.000000e0 0.000000e0 0.000000e0 0.000000e0 4.926528e-1 -8.457625e-1 0.000000e0 0.000000e0
1.720000e9 0.000000e0 0.000000e0 0.000000e0 0.000000e0 -8.302351e-4 -5.969081e-4 0.000000e0 0.000000e0
 0.000000e0 0.000000e0 0.000000e0 0.000000e0 8.397769e-4 1.629032e-4 0.000000e0 0.000000e0
 0.000000e0 0.000000e0 0.000000e0 0.000000e0 -4.654480e-2 9.819580e-2 0.000000e0 0.000000e0
 0.000000e0 0.000000e0 0.000000e0 0.000000e0 4.852729e-1 -8.493453e-1 0.000000e0 0.000000e0
1.730000e9 0.000000e0 0.000000e0 0.000000e0 0.000000e0 -8.481181e-4 -5.891881e-4 0.000000e0 0.000000e0
 0.000000e0 0.000000e0 0.000000e0 0.000000e0 8.408673e-4 1.453773e-4 0.000000e0 0.000000e0
 0.000000e0 0.000000e0 0.000000e0 0.000000e0 -4.607513e-2 9.794013e-2 0.000000e0 0.000000e0
 0.000000e0 0.000000e0 0.000000e0 0.000000e0 4.782987e-1 -8.524428e-1 0.000000e0 0.000000e0
1.740000e9 0.000000e0 0.000000e0 0.000000e0 0.000000e0 -8.588510e-4 -5.854341e-4 0.000000e0 0.000000e0
 0.000000e0 0.000000e0 0.000000e0 0.000000e0 8.409504e-4 1.375970e-4 0.000000e0 0.000000e0
 0.000000e0 0.000000e0 0.000000e0 0.000000e0 -4.616228e-2 9.776940e-2 0.000000e0 0.000000e0
 0.000000e0 0.000000e0 0.000000e0 0.000000e0 4.719000e-1 -8.555404e-1 0.000000e0 0.000000e0
1.750000e9 0.000000e0 0.000000e0 0.000000e0 0.000000e0 -8.682934e-4 -5.899822e-4 0.000000e0 0.000000e0
 0.000000e0 0.000000e0 0.000000e0 0.000000e0 8.482138e-4 1.366990e-4 0.000000e0 0.000000e0
 0.000000e0 0.000000e0 0.000000e0 0.000000e0 -4.653206e-2 9.809905e-2 0.000000e0 0.000000e0
 0.000000e0 0.000000e0 0.000000e0 0.000000e0 4.658128e-1 -8.590741e-1 0.000000e0 0.000000e0
1.760000e9 0.000000e0 0.000000e0 0.000000e0 0.000000e0 -8.835667e-4 -6.010852e-4 0.000000e0 0.000000e0
 0.000000e0 0.000000e0 0.000000e0 0.000000e0 8.656808e-4 1.345373e-4 0.000000e0 0.000000e0
 0.000000e0 0.000000e0 0.000000e0 0.000000e0 -4.669346e-2 9.898142e-2 0.000000e0 0.000000e0
 0.000000e0 0.000000e0 0.000000e0 0.000000e0 4.595375e-1 -8.631173e-1 0.000000e0 0.000000e0
1.770000e9 0.000000e0 0.000000e0 0.000000e0 0.000000e0 -9.078948e-4 -6.121143e-4 0.000000e0 0.000000e0
 0.000000e0 0.000000e0 0.000000e0 0.000000e0 8.890047e-4 1.235757e-4 0.000000e0 0.000000e0
 0.000000e0 0.000000e0 0.000000e0 0.000000e0 -4.629616e-2 1.000740e-1 0.000000e0 0.000000e0
 0.000000e0 0.000000e0 0.000000e0 0.000000e0 4.527025e-1 -8.673340e-1 0.000000e0 0.000000e0
1.780000e9 0.000000e0 0.000000e0 0.000000e0 0.000000e0 -9.382223e-4 -6.163228e-4 0.000000e0 0.000000e0
 0.000000e0 0.000000e0 0.000000e0 0.000000e0 9.096035e-4 1.023504e-4 0.000000e0 0.000000e0
 0.000000e0 0.000000e0 0.000000e0 0.000000e0 -4.538037e-2 1.008928e-1 0.000000e0 0.000000e0
 0.000000e0 0.000000e0 0.000000e0 0.000000e0 4.453301e-1 -8.712277e-1 0.000000e0 0.000000e0
1.790000e9 0.000000e0 0.000000e0 0.000000e0 0.000000e0 -9.673709e-4 -6.117495e-4 0.000000e0 0.000000e0
 0.000000e0 0.000000e0 0.000000e0 0.000000e0 9.208738e-4 7.654082e-5 0.000000e0 0.000000e0
 0.000000e0 0.000000e0 0.000000e0 0.000000e0 -4.434110e-2 1.011626e-1 0.000000e0 0.000000e0
 0.000000e0 0.000000e0 0.000000e0 0.000000e0 4.378144e-1 -8.745015e-1 0.000000e0 0.000000e0
1.800000e9 0.000000e0 0.000000e0 0.000000e0 0.000000e0 -9.892221e-4 -6.026969e-4 0.000000e0 0.000000e0
 0.000000e0 0.000000e0 0.000000e0 0.000000e0 9.229834e-4 5.486248e-5 0.000000e0 0.000000e0
 0.000000e0 0.000000e0 0.000000e0 0.000000e0 -4.363743e-2 1.010117e-1 0.000000e0 0.000000e0
 0.000000e0 0.000000e0 0.000000e0 0.000000e0 4.306315e-1 -8.772690e-1 0.000000e0 0.000000e0
1.810000e9 0.000000e0 0.000000e0 0.000000e0 0.000000e0 -1.003189e-3 -5.966655e-4 0.000000e0 0.000000e0
 0.000000e0 0.000000e0 0.000000e0 0.000000e0 9.227630e-4 4.274957e-5 0.000000e0 0.000000e0
 0.000000e0 0.000000e0 0.000000e0 0.000000e0 -4.346057e-2 1.008720e-1 0.000000e0 0.000000e0
 0.000000e0 0.000000e0 0.000000e0 0.000000e0 4.239957e-1 -8.799663e-1 0.000000e0 0.000000e0
1.820000e9 0.000000e0 0.000000e0 0.000000e0 0.000000e0 -1.014711e-3 -5.989196e-4 0.000000e0 0.000000e0
 0.000000e0 0.000000e0 0.000000e0 0.000000e0 9.287668e-4 3.840910e-5 0.000000e0 0.000000e0
 0.000000e0 0.000000e0 0.000000e0 0.000000e0 -4.360038e-2 1.011620e-1 0.000000e0 0.000000e0
 0.000000e0 0.000000e0 0.000000e0 0.000000e0 4.177089e-1 -8.830326e-1 0.000000e0 0.000000e0
1.830000e9 0.000000e0 0.000000e0 0.000000e0 0.000000e0 -1.031357e-3 -6.086147e-4 0.000000e0 0.000000e0
 0.000000e0 0.000000e0 0.000000e0 0.000000e0 9.450818e-4 3.411398e-5 0.000000e0 0.000000e0
 0.000000e0 0.000000e0 0.000000e0 0.000000e0 -4.360340e-2 1.019851e-1 0.000000e0 0.000000e0
 0.000000e0 0.000000e0 0.000000e0 0.000000e0 4.113097e-1 -8.865939e-1 0.000000e0 0.000000e0
1.840000e9 0.000000e0 0.000000e0 0.000000e0 0.000000e0 -1.057316e-3 -6.193359e-4 0.000000e0 0.000000e0
 0.000000e0 0.000000e0 0.000000e0 0.000000e0 9.683818e-4 2.180053e-5 0.000000e0 0.000000e0
 0.000000e0 0.000000e0 0.000000e0 0.000000e0 -4.310364e-2 1.030592e-1 0.000000e0 0.000000e0
 0.000000e0 0.000000e0 0.000000e0 0.000000e0 4.044098e-1 -8.903765e-1 0.000000e0 0.000000e0
1.850000e9 0.000000e0 0.000000e0 0.000000e0 0.000000e0 -1.090272e-3 -6.237233e-4 0.000000e0 0.000000e0
 0.000000e0 0.000000e0 0.000000e0 0.000000e0 9.903722e-4 -1.096474e-6 0.000000e0 0.000000e0
 0.000000e0 0.000000e0 0.000000e0 0.000000e0 -4.208524e-2 1.039256e-1 0.000000e0 0.000000e0
 0.000000e0 0.000000e0 0.000000e0 0.000000e0 3.969732e-1 -8.939097e-1 0.000000e0 0.000000e0
1.860000e9 0.000000e0 0.000000e0 0.000000e0 0.000000e0 -1.122994e-3 -6.188778e-4 0.000000e0 0.000000e0
 0.000000e0 0.000000e0 0.000000e0 0.000000e0 1.003852e-3 -2.982215e-5 0.000000e0 0.000000e0
 0.000000e0 0.000000e0 0.000000e0 0.000000e0 -4.088882e-2 1.042819e-1 0.000000e0 0.000000e0
 0.000000e0 0.000000e0 0.000000e0 0.000000e0 3.893375e-1 -8.968677e-1 0.000000e0 0.000000e0
1.870000e9 0.000000e0 0.000000e0 0.000000e0 0.000000e0 -1.148564e-3 -6.086119e-4 0.000000e0 0.000000e0
 0.000000e0 0.000000e0 0.000000e0 0.000000e0 1.007974e-3 -5.583413e-5 0.000000e0 0.000000e0
 0.000000e0 0.000000e0 0.000000e0 0.000000e0 -3.996083e-2 1.041973e-1 0.000000e0 0.000000e0
 0.000000e0 0.000000e0 0.000000e0 0.000000e0 3.819658e-1 -8.993022e-1 0.000000e0 0.000000e0
1.880000e9 0.000000e0 0.000000e0 0.000000e0 0.000000e0 -1.165505e-3 -6.008321e-4 0.000000e0 0.000000e0
 0.000000e0 0.000000e0 0.000000e0 0.000000e0 1.008849e-3 -7.312470e-5 0.000000e0 0.000000e0
 0.000000e0 0.000000e0 0.000000e0 0.000000e0 -3.953042e-2 1.040567e-1 0.000000e0 0.000000e0
 0.000000e0 0.000000e0 0.000000e0 0.000000e0 3.751122e-1 -9.015998e-1 0.000000e0 0.000000e0
1.890000e9 0.000000e0 0.000000e0 0.000000e0 0.000000e0 -1.179062e-3 -6.018568e-4 0.000000e0 0.000000e0
 0.000000e0 0.000000e0 0.000000e0 0.000000e0 1.015022e-3 -8.270749e-5 0.000000e0 0.000000e0
 0.000000e0 0.000000e0 0.000000e0 0.000000e0 -3.944759e-2 1.042789e-1 0.000000e0 0.000000e0
 0.000000e0 0.000000e0 0.000000e0 0.000000e0 3.686419e-1 -9.041996e-1 0.000000e0 0.000000e0
1.900000e9 0.000000e0 0.000000e0 0.000000e0 0.000000e0 -1.197618e-3 -6.117377e-4 0.000000e0 0.000000e0
 0.000000e0 0.000000e0 0.000000e0 0.000000e0 1.031097e-3 -9.195144e-5 0.000000e0 0.000000e0
 0.000000e0 0.000000e0 0.000000e0 0.000000e0 -3.929692e-2 1.050138e-1 0.000000e0 0.000000e0
 0.000000e0 0.000000e0 0.000000e0 0.000000e0 3.621344e-1 -9.072759e-1 0.000000e0 0.000000e0
1.910000e9 0.000000e0 0.000000e0 0.000000e0 0.000000e0 -1.226735e-3 -6.240047e-4 0.000000e0 0.000000e0
 0.000000e0 0.000000e0 0.000000e0 0.000000e0 1.054195e-3 -1.091916e-4 0.000000e0 0.000000e0
 0.000000e0 0.000000e0 0.000000e0 0.000000e0 -3.870065e-2 1.060383e-1 0.000000e0 0.000000e0
 0.000000e0 0.000000e0 0.000000e0 0.000000e0 3.551905e-1 -9.106176e-1 0.000000e0 0.000000e0
1.920000e9 0.000000e0 0.000000e0 0.000000e0 0.000000e0 -1.265088e-3 -6.301170e-4 0.000000e0 0.000000e0
 0.000000e0 0.000000e0 0.000000e0 0.000000e0 1.075887e-3 -1.375181e-4 0.000000e0 0.000000e0
 0.000000e0 0.000000e0 0.000000e0 0.000000e0 -3.758999e-2 1.069225e-1 0.000000e0 0.000000e0
 0.000000e0 0.000000e0 0.000000e0 0.000000e0 3.477195e-1 -9.137857e-1 0.000000e0 0.000000e0
1.930000e9 0.000000e0 0.000000e0 0.000000e0 0.000000e0 -1.305262e-3 -6.254991e-4 0.000000e0 0.000000e0
 0.000000e0 0.000000e0 0.000000e0 0.000000e0 1.088287e-3 -1.723015e-4 0.000000e0 0.000000e0
 0.000000e0 0.000000e0 0.000000e0 0.000000e0 -3.624981e-2 1.073417e-1 0.000000e0 0.000000e0
 0.000000e0 0.000000e0 0.000000e0 0.000000e0 3.400001e-1 -9.164334e-1 0.000000e0 0.000000e0
1.940000e9 0.000000e0 0.000000e0 0.000000e0 0.000000e0 -1.338935e-3 -6.128418e-4 0.000000e0 0.000000e0
 0.000000e0 0.000000e0 0.000000e0 0.000000e0 1.089892e-3 -2.043478e-4 0.000000e0 0.000000e0
 0.000000e0 0.000000e0 0.000000e0 0.000000e0 -3.510776e-2 1.073087e-1 0.000000e0 0.000000e0
 0.000000e0 0.000000e0 0.000000e0 0.000000e0 3.324741e-1 -9.185550e-1 0.000000e0 0.000000e0
1.950000e9 0.000000e0 0.000000e0 0.000000e0 0.000000e0 -1.362780e-3 -6.002469e-4 0.000000e0 0.000000e0
 0.000000e0 0.000000e0 0.000000e0 0.000000e0 1.086894e-3 -2.264859e-4 0.000000e0 0.000000e0
 0.000000e0 0.000000e0 0.000000e0 0.000000e0 -3.442364e-2 1.071582e-1 0.000000e0 0.000000e0
 0.000000e0 0.000000e0 0.000000e0 0.000000e0 3.254247e-1 -9.204852e-1 0.000000e0 0.000000e0
1.960000e9 0.000000e0 0.000000e0 0.000000e0 0.000000e0 -1.380852e-3 -5.954792e-4 0.000000e0 0.000000e0
 0.000000e0 0.000000e0 0.000000e0 0.000000e0 1.088905e-3 -2.388392e-4 0.000000e0 0.000000e0
 0.000000e0 0.000000e0 0.000000e0 0.000000e0 -3.410454e-2 1.073004e-1 0.000000e0 0.000000e0
 0.000000e0 0.000000e0 0.000000e0 0.000000e0 3.187744e-1 -9.226525e-1 0.000000e0 0.000000e0
1.970000e9 0.000000e0 0.000000e0 0.000000e0 0.000000e0 -1.401705e-3 -6.004159e-4 0.000000e0 0.000000e0
 0.000000e0 0.000000e0 0.000000e0 0.000000e0 1.102104e-3 -2.489131e-4 0.000000e0 0.000000e0
 0.000000e0 0.000000e0 0.000000e0 0.000000e0 -3.377721e-2 1.079223e-1 0.000000e0 0.000000e0
 0.000000e0 0.000000e0 0.000000e0 0.000000e0 3.121451e-1 -9.252682e-1 0.000000e0 0.000000e0
1.980000e9 0.000000e0 0.000000e0 0.000000e0 0.000000e0 -1.432253e-3 -6.096925e-4 0.000000e0 0.000000e0
 0.000000e0 0.000000e0 0.000000e0 0.000000e0 1.124737e-3 -2.663398e-4 0.000000e0 0.000000e0
 0.000000e0 0.000000e0 0.000000e0 0.000000e0 -3.306200e-2 1.088559e-1 0.000000e0 0.000000e0
 0.000000e0 0.000000e0 0.000000e0 0.000000e0 3.051360e-1 -9.281755e-1 0.000000e0 0.000000e0
1.990000e9 0.000000e0 0.000000e0 0.000000e0 0.000000e0 -1.472785e-3 -6.145627e-4 0.000000e0 0.000000e0
 0.000000e0 0.000000e0 0.000000e0 0.000000e0 1.148279e-3 -2.960051e-4 0.000000e0 0.000000e0
 0.000000e0 0.000000e0 0.000000e0 0.000000e0 -3.184763e-2 1.097031e-1 0.000000e0 0.000000e0
 0.000000e0 0.000000e0 0.000000e0 0.000000e0 2.976132e-1 -9.309671e-1 0.000000e0 0.000000e0
2.000000e9 0.000000e0 0.000000e0 0.000000e0 0.000000e0 -1.516728e-3 -6.092322e-4 0.000000e0 0.000000e0
 0.000000e0 0.000000e0 0.000000e0 0.000000e0 1.163500e-3 -3.345112e-4 0.000000e0 0.000000e0
 0.000000e0 0.000000e0 0.000000e0 0.000000e0 -3.036861e-2 1.101266e-1 0.000000e0 0.000000e0
 0.000000e0 0.000000e0 0.000000e0 0.000000e0 2.898050e-1 -9.332822e-1 0.000000e0 0.000000e0
2.010000e9 0.000000e0 0.000000e0 0.000000e0 0.000000e0 -1.555397e-3 -5.951062e-4 0.000000e0 0.000000e0
 0.000000e0 0.000000e0 0.000000e0 0.000000e0 1.167105e-3 -3.725822e-4 0.000000e0 0.000000e0
 0.000000e0 0.000000e0 0.000000e0 0.000000e0 -2.903168e-2 1.100926e-1 0.000000e0 0.000000e0
 0.000000e0 0.000000e0 0.000000e0 0.000000e0 2.821330e-1 -9.350668e-1 0.000000e0 0.000000e0
2.020000e9 0.000000e0 0.000000e0 0.000000e0 0.000000e0 -1.584338e-3 -5.798424e-4 0.000000e0 0.000000e0
 0.000000e0 0.000000e0 0.000000e0 0.000000e0 1.164151e-3 -4.017449e-4 0.000000e0 0.000000e0
 0.000000e0 0.000000e0 0.000000e0 0.000000e0 -2.811986e-2 1.098912e-1 0.000000e0 0.000000e0
 0.000000e0 0.000000e0 0.000000e0 0.000000e0 2.749059e-1 -9.366104e-1 0.000000e0 0.000000e0
2.030000e9 0.000000e0 0.000000e0 0.000000e0 0.000000e0 -1.606657e-3 -5.718323e-4 0.000000e0 0.000000e0
 0.000000e0 0.000000e0 0.000000e0 0.000000e0 1.164440e-3 -4.204938e-4 0.000000e0 0.000000e0
 0.000000e0 0.000000e0 0.000000e0 0.000000e0 -2.758931e-2 1.099227e-1 0.000000e0 0.000000e0
 0.000000e0 0.000000e0 0.000000e0 0.000000e0 2.680972e-1 -9.383328e-1 0.000000e0 0.000000e0
2.040000e9 0.000000e0 0.000000e0 0.000000e0 0.000000e0 -1.630894e-3 -5.740685e-4 0.000000e0 0.000000e0
 0.000000e0 0.000000e0 0.000000e0 0.000000e0 1.175433e-3 -4.354644e-4 0.000000e0 0.000000e0
 0.000000e0 0.000000e0 0.000000e0 0.000000e0 -2.710487e-2 1.104066e-1 0.000000e0 0.000000e0
 0.000000e0 0.000000e0 0.000000e0 0.000000e0 2.613682e-1 -9.404799e-1 0.000000e0 0.000000e0
2.050000e9 0.000000e0 0.000000e0 0.000000e0 0.000000e0 -1.664890e-3 -5.818544e-4 0.000000e0 0.000000e0
 0.000000e0 0.000000e0 0.000000e0 0.000000e0 1.196790e-3 -4.567070e-4 0.000000e0 0.000000e0
 0.000000e0 0.000000e0 0.000000e0 0.000000e0 -2.628577e-2 1.112242e-1 0.000000e0 0.000000e0
 0.000000e0 0.000000e0 0.000000e0 0.000000e0 2.543153e-1 -9.429473e-1 0.000000e0 0.000000e0
2.060000e9 0.000000e0 0.000000e0 0.000000e0 0.000000e0 -1.710065e-3 -5.860870e-4 0.000000e0 0.000000e0
 0.000000e0 0.000000e0 0.000000e0 0.000000e0 1.220524e-3 -4.904281e-4 0.000000e0 0.000000e0
 0.000000e0 0.000000e0 0.000000e0 0.000000e0 -2.498166e-2 1.120078e-1 0.000000e0 0.000000e0
 0.000000e0 0.000000e0 0.000000e0 0.000000e0 2.467632e-1 -9.453588e-1 0.000000e0 0.000000e0
2.070000e9 0.000000e0 0.000000e0 0.000000e0 0.000000e0 -1.760287e-3 -5.798107e-4 0.000000e0 0.000000e0
 0.000000e0 0.000000e0 0.000000e0 0.000000e0 1.236708e-3 -5.344418e-4 0.000000e0 0.000000e0
 0.000000e0 0.000000e0 0.000000e0 0.000000e0 -2.337909e-2 1.124089e-1 0.000000e0 0.000000e0
 0.000000e0 0.000000e0 0.000000e0 0.000000e0 2.388891e-1 -9.473409e-1 0.000000e0 0.000000e0
2.080000e9 0.000000e0 0.000000e0 0.000000e0 0.000000e0 -1.806224e-3 -5.633218e-4 0.000000e0 0.000000e0
 0.000000e0 0.000000e0 0.000000e0 0.000000e0 1.240677e-3 -5.796732e-4 0.000000e0 0.000000e0
 0.000000e0 0.000000e0 0.000000e0 0.000000e0 -2.186336e-2 1.123496e-1 0.000000e0 0.000000e0
 0.000000e0 0.000000e0 0.000000e0 0.000000e0 2.310926e-1 -9.487928e-1 0.000000e0 0.000000e0
2.090000e9 0.000000e0 0.000000e0 0.000000e0 0.000000e0 -1.842118e-3 -5.440734e-4 0.000000e0 0.000000e0
 0.000000e0 0.000000e0 0.000000e0 0.000000e0 1.236482e-3 -6.166981e-4 0.000000e0 0.000000e0
 0.000000e0 0.000000e0 0.000000e0 0.000000e0 -2.073799e-2 1.120757e-1 0.000000e0 0.000000e0
 0.000000e0 0.000000e0 0.000000e0 0.000000e0 2.237045e-1 -9.499571e-1 0.000000e0 0.000000e0
2.100000e9 0.000000e0 0.000000e0 0.000000e0 0.000000e0 -1.870079e-3 -5.313538e-4 0.000000e0 0.000000e0
 0.000000e0 0.000000e0 0.000000e0 0.000000e0 1.234042e-3 -6.426257e-4 0.000000e0 0.000000e0
 0.000000e0 0.000000e0 0.000000e0 0.000000e0 -2.000616e-2 1.119754e-1 0.000000e0 0.000000e0
 0.000000e0 0.000000e0 0.000000e0 0.000000e0 2.167483e-1 -9.512415e-1 0.000000e0 0.000000e0
2.110000e9 0.000000e0 0.000000e0 0.000000e0 0.000000e0 -1.898709e-3 -5.295235e-4 0.000000e0 0.000000e0
 0.000000e0 0.000000e0 0.000000e0 0.000000e0 1.241987e-3 -6.633143e-4 0.000000e0 0.000000e0
 0.000000e0 0.000000e0 0.000000e0 0.000000e0 -1.937158e-2 1.122969e-1 0.000000e0 0.000000e0
 0.000000e0 0.000000e0 0.000000e0 0.000000e0 2.099258e-1 -9.529224e-1 0.000000e0 0.000000e0
2.120000e9 0.000000e0 0.000000e0 0.000000e0 0.000000e0 -1.936973e-3 -5.347172e-4 0.000000e0 0.000000e0
 0.000000e0 0.000000e0 0.000000e0 0.000000e0 1.261330e-3 -6.892432e-4 0.000000e0 0.000000e0
 0.000000e0 0.000000e0 0.000000e0 0.000000e0 -1.845591e-2 1.129690e-1 0.000000e0 0.000000e0
 0.000000e0 0.000000e0 0.000000e0 0.000000e0 2.028357e-1 -9.549463e-1 0.000000e0 0.000000e0
2.130000e9 0.000000e0 0.000000e0 0.000000e0 0.000000e0 -1.987676e-3 -5.374842e-4 0.000000e0 0.000000e0
 0.000000e0 0.000000e0 0.000000e0 0.000000e0 1.284607e-3 -7.279569e-4 0.000000e0 0.000000e0
 0.000000e0 0.000000e0 0.000000e0 0.000000e0 -1.707360e-2 1.136562e-1 0.000000e0 0.000000e0
 0.000000e0 0.000000e0 0.000000e0 0.000000e0 1.952644e-1 -9.569701e-1 0.000000e0 0.000000e0
2.140000e9 0.000000e0 0.000000e0 0.000000e0 0.000000e0 -2.045309e-3 -5.295590e-4 0.000000e0 0.000000e0
 0.000000e0 0.000000e0 0.000000e0 0.000000e0 1.301179e-3 -7.785358e-4 0.000000e0 0.000000e0
 0.000000e0 0.000000e0 0.000000e0 0.000000e0 -1.536467e-2 1.140025e-1 0.000000e0 0.000000e0
 0.000000e0 0.000000e0 0.000000e0 0.000000e0 1.873400e-1 -9.586122e-1 0.000000e0 0.000000e0
2.150000e9 0.000000e0 0.000000e0 0.000000e0 0.000000e0 -2.099919e-3 -5.099064e-4 0.000000e0 0.000000e0
 0.000000e0 0.000000e0 0.000000e0 0.000000e0 1.304936e-3 -8.321567e-4 0.000000e0 0.000000e0
 0.000000e0 0.000000e0 0.000000e0 0.000000e0 -1.369084e-2 1.138896e-1 0.000000e0 0.000000e0
 0.000000e0 0.000000e0 0.000000e0 0.000000e0 1.794370e-1 -9.597283e-1 0.000000e0 0.000000e0
2.160000e9 0.000000e0 0.000000e0 0.000000e0 0.000000e0 -2.144309e-3 -4.856122e-4 0.000000e0 0.000000e0
 0.000000e0 0.000000e0 0.000000e0 0.000000e0 1.298819e-3 -8.784296e-4 0.000000e0 0.000000e0
 0.000000e0 0.000000e0 0.000000e0 0.000000e0 -1.237200e-2 1.135200e-1 0.000000e0 0.000000e0
 0.000000e0 0.000000e0 0.000000e0 0.000000e0 1.719042e-1 -9.605146e-1 0.000000e0 0.000000e0
2.170000e9 0.000000e0 0.000000e0 0.000000e0 0.000000e0 -2.179381e-3 -4.668608e-4 0.000000e0 0.000000e0
 0.000000e0 0.000000e0 0.000000e0 0.000000e0 1.292801e-3 -9.129832e-4 0.000000e0 0.000000e0
 0.000000e0 0.000000e0 0.000000e0 0.000000e0 -1.145526e-2 1.132669e-1 0.000000e0 0.000000e0
 0.000000e0 0.000000e0 0.000000e0 0.000000e0 1.648122e-1 -9.613634e-1 0.000000e0 0.000000e0
2.180000e9 0.000000e0 0.000000e0 0.000000e0 0.000000e0 -2.213675e-3 -4.595384e-4 0.000000e0 0.000000e0
 0.000000e0 0.000000e0 0.000000e0 0.000000e0 1.296712e-3 -9.407834e-4 0.000000e0 0.000000e0
 0.000000e0 0.000000e0 0.000000e0 0.000000e0 -1.068330e-2 1.134030e-1 0.000000e0 0.000000e0
 0.000000e0 0.000000e0 0.000000e0 0.000000e0 1.579044e-1 -9.625780e-1 0.000000e0 0.000000e0
2.190000e9 0.000000e0 0.000000e0 0.000000e0 0.000000e0 -2.257323e-3 -4.608144e-4 0.000000e0 0.000000e0
 0.000000e0 0.000000e0 0.000000e0 0.000000e0 1.313034e-3 -9.726917e-4 0.000000e0 0.000000e0
 0.000000e0 0.000000e0 0.000000e0 0.000000e0 -9.683439e-3 1.139027e-1 0.000000e0 0.000000e0
 0.000000e0 0.000000e0 0.000000e0 0.000000e0 1.507846e-1 -9.641532e-1 0.000000e0 0.000000e0
2.200000e9 0.000000e0 0.000000e0 0.000000e0 0.000000e0 -2.314702e-3 -4.609897e-4 0.000000e0 0.000000e0
 0.000000e0 0.000000e0 0.000000e0 0.000000e0 1.334943e-3 -1.017660e-3 0.000000e0 0.000000e0
 0.000000e0 0.000000e0 0.000000e0 0.000000e0 -8.238731e-3 1.144631e-1 0.000000e0 0.000000e0
 0.000000e0 0.000000e0 0.000000e0 0.000000e0 1.432050e-1 -9.657811e-1 0.000000e0 0.000000e0
2.210000e9 0.000000e0 0.000000e0 0.000000e0 0.000000e0 -2.381132e-3 -4.504053e-4 0.000000e0 0.000000e0
 0.000000e0 0.000000e0 0.000000e0 0.000000e0 1.351108e-3 -1.076179e-3 0.000000e0 0.000000e0
 0.000000e0 0.000000e0 0.000000e0 0.000000e0 -6.444283e-3 1.147246e-1 0.000000e0 0.000000e0
 0.000000e0 0.000000e0 0.000000e0 0.000000e0 1.352454e-1 -9.670753e-1 0.000000e0 0.000000e0
2.220000e9 0.000000e0 0.000000e0 0.000000e0 0.000000e0 -2.446110e-3 -4.264788e-4 0.000000e0 0.000000e0
 0.000000e0 0.000000e0 0.000000e0 0.000000e0 1.353869e-3 -1.139794e-3 0.000000e0 0.000000e0
 0.000000e0 0.000000e0 0.000000e0 0.000000e0 -4.636463e-3 1.145321e-1 0.000000e0 0.000000e0
 0.000000e0 0.000000e0 0.000000e0 0.000000e0 1.272533e-1 -9.678513e-1 0.000000e0 0.000000e0
2.230000e9 0.000000e0 0.000000e0 0.000000e0 0.000000e0 -2.500883e-3 -3.957336e-4 0.000000e0 0.000000e0
 0.000000e0 0.000000e0 0.000000e0 0.000000e0 1.344892e-3 -1.197140e-3 0.000000e0 0.000000e0
 0.000000e0 0.000000e0 0.000000e0 0.000000e0 -3.147844e-3 1.140450e-1 0.000000e0 0.000000e0
 0.000000e0 0.000000e0 0.000000e0 0.000000e0 1.195918e-1 -9.682590e-1 0.000000e0 0.000000e0
2.240000e9 0.000000e0 0.000000e0 0.000000e0 0.000000e0 -2.544918e-3 -3.692169e-4 0.000000e0 0.000000e0
 0.000000e0 0.000000e0 0.000000e0 0.000000e0 1.334103e-3 -1.242233e-3 0.000000e0 0.000000e0
 0.000000e0 0.000000e0 0.000000e0 0.000000e0 -2.066540e-3 1.136198e-1 0.000000e0 0.000000e0
 0.000000e0 0.000000e0 0.000000e0 0.000000e0 1.123761e-1 -9.686728e-1 0.000000e0 0.000000e0
2.250000e9 0.000000e0 0.000000e0 0.000000e0 0.000000e0 -2.586524e-3 -3.544984e-4 0.000000e0 0.000000e0
 0.000000e0 0.000000e0 0.000000e0 0.000000e0 1.332575e-3 -1.278981e-3 0.000000e0 0.000000e0
 0.000000e0 0.000000e0 0.000000e0 0.000000e0 -1.174286e-3 1.135496e-1 0.000000e0 0.000000e0
 0.000000e0 0.000000e0 0.000000e0 0.000000e0 1.053913e-1 -9.694190e-1 0.000000e0 0.000000e0
2.260000e9 0.000000e0 0.000000e0 0.000000e0 0.000000e0 -2.637019e-3 -3.500164e-4 0.000000e0 0.000000e0
 0.000000e0 0.000000e0 0.000000e0 0.000000e0 1.344421e-3 -1.318560e-3 0.000000e0 0.000000e0
 0.000000e0 0.000000e0 0.000000e0 0.000000e0 -1.069365e-4 1.138522e-1 0.000000e0 0.000000e0
 0.000000e0 0.000000e0 0.000000e0 0.000000e0 9.825000e-2 -9.705395e-1 0.000000e0 0.000000e0
2.270000e9 0.000000e0 0.000000e0 0.000000e0 0.000000e0 -2.702557e-3 -3.459590e-4 0.000000e0 0.000000e0
 0.000000e0 0.000000e0 0.000000e0 0.000000e0 1.363615e-3 -1.371417e-3 0.000000e0 0.000000e0
 0.000000e0 0.000000e0 0.000000e0 0.000000e0 1.380322e-3 1.142582e-1 0.000000e0 0.000000e0
 0.000000e0 0.000000e0 0.000000e0 0.000000e0 9.067342e-2 -9.717623e-1 0.000000e0 0.000000e0
2.280000e9 0.000000e0 0.000000e0 0.000000e0 0.000000e0 -2.779528e-3 -3.311998e-4 0.000000e0 0.000000e0
 0.000000e0 0.000000e0 0.000000e0 0.000000e0 1.378166e-3 -1.439648e-3 0.000000e0 0.000000e0
 0.000000e0 0.000000e0 0.000000e0 0.000000e0 3.235797e-3 1.144078e-1 0.000000e0 0.000000e0
 0.000000e0 0.000000e0 0.000000e0 0.000000e0 8.269374e-2 -9.727000e-1 0.000000e0 0.000000e0
2.290000e9 0.000000e0 0.000000e0 0.000000e0 0.000000e0 -2.856985e-3 -3.013688e-4 0.000000e0 0.000000e0
 0.000000e0 0.000000e0 0.000000e0 0.000000e0 1.378731e-3 -1.515315e-3 0.000000e0 0.000000e0
 0.000000e0 0.000000e0 0.000000e0 0.000000e0 5.150018e-3 1.141119e-1 0.000000e0 0.000000e0
 0.000000e0 0.000000e0 0.000000e0 0.000000e0 7.462977e-2 -9.731304e-1 0.000000e0 0.000000e0
2.300000e9 0.000000e0 0.000000e0 0.000000e0 0.000000e0 -2.924497e-3 -2.621888e-4 0.000000e0 0.000000e0
 0.000000e0 0.000000e0 0.000000e0 0.000000e0 1.365489e-3 -1.586079e-3 0.000000e0 0.000000e0
 0.000000e0 0.000000e0 0.000000e0 0.000000e0 6.781160e-3 1.134881e-1 0.000000e0 0.000000e0
 0.000000e0 0.000000e0 0.000000e0 0.000000e0 6.685521e-2 -9.731576e-1 0.000000e0 0.000000e0
2.310000e9 0.000000e0 0.000000e0 0.000000e0 0.000000e0 -2.979839e-3 -2.255099e-4 0.000000e0 0.000000e0
 0.000000e0 0.000000e0 0.000000e0 0.000000e0 1.348187e-3 -1.644174e-3 0.000000e0 0.000000e0
 0.000000e0 0.000000e0 0.000000e0 0.000000e0 8.002765e-3 1.128733e-1 0.000000e0 0.000000e0
 0.000000e0 0.000000e0 0.000000e0 0.000000e0 5.952760e-2 -9.731353e-1 0.000000e0 0.000000e0
2.320000e9 0.000000e0 0.000000e0 0.000000e0 0.000000e0 -3.030878e-3 -2.007525e-4 0.000000e0 0.000000e0
 0.000000e0 0.000000e0 0.000000e0 0.000000e0 1.339188e-3 -1.692245e-3 0.000000e0 0.000000e0
 0.000000e0 0.000000e0 0.000000e0 0.000000e0 8.994021e-3 1.125783e-1 0.000000e0 0.000000e0
 0.000000e0 0.000000e0 0.000000e0 0.000000e0 5.247478e-2 -9.734096e-1 0.000000e0 0.000000e0
2.330000e9 0.000000e0 0.000000e0 0.000000e0 0.000000e0 -3.090120e-3 -1.878983e-4 0.000000e0 0.000000e0
 0.000000e0 0.000000e0 0.000000e0 0.000000e0 1.344433e-3 -1.741686e-3 0.000000e0 0.000000e0
 0.000000e0 0.000000e0 0.000000e0 0.000000e0 1.010789e-2 1.126618e-1 0.000000e0 0.000000e0
 0.000000e0 0.000000e0 0.000000e0 0.000000e0 4.532068e-2 -9.740678e-1 0.000000e0 0.000000e0
2.340000e9 0.000000e0 0.000000e0 0.000000e0 0.000000e0 -3.165724e-3 -1.771964e-4 0.000000e0 0.000000e0
 0.000000e0 0.000000e0 0.000000e0 0.000000e0 1.358901e-3 -1.804551e-3 0.000000e0 0.000000e0
 0.000000e0 0.000000e0 0.000000e0 0.000000e0 1.161381e-2 1.128890e-1 0.000000e0 0.000000e0
 0.000000e0 0.000000e0 0.000000e0 0.000000e0 3.775872e-2 -9.748754e-1 0.000000e0 0.000000e0
2.350000e9 0.000000e0 0.000000e0 0.000000e0 0.000000e0 -3.255446e-3 -1.559834e-4 0.000000e0 0.000000e0
 0.000000e0 0.000000e0 0.000000e0 0.000000e0 1.369980e-3 -1.884773e-3 0.000000e0 0.000000e0
 0.000000e0 0.000000e0 0.000000e0 0.000000e0 1.350209e-2 1.129026e-1 0.000000e0 0.000000e0
 0.000000e0 0.000000e0 0.000000e0 0.000000e0 2.977434e-2 -9.754470e-1 0.000000e0 0.000000e0
2.360000e9 0.000000e0 0.000000e0 0.000000e0 0.000000e0 -3.348030e-3 -1.178237e-4 0.000000e0 0.000000e0
 0.000000e0 0.000000e0 0.000000e0 0.000000e0 1.366483e-3 -1.975134e-3 0.000000e0 0.000000e0
 0.000000e0 0.000000e0 0.000000e0 0.000000e0 1.549159e-2 1.124827e-1 0.000000e0 0.000000e0
 0.000000e0 0.000000e0 0.000000e0 0.000000e0 2.165539e-2 -9.755255e-1 0.000000e0 0.000000e0
2.370000e9 0.000000e0 0.000000e0 0.000000e0 0.000000e0 -3.431248e-3 -6.734571e-5 0.000000e0 0.000000e0
 0.000000e0 0.000000e0 0.000000e0 0.000000e0 1.346839e-3 -2.062321e-3 0.000000e0 0.000000e0
 0.000000e0 0.000000e0 0.000000e0 0.000000e0 1.723438e-2 1.117054e-1 0.000000e0 0.000000e0
 0.000000e0 0.000000e0 0.000000e0 0.000000e0 1.378308e-2 -9.751690e-1 0.000000e0 0.000000e0
2.380000e9 0.000000e0 0.000000e0 0.000000e0 0.000000e0 -3.500877e-3 -1.710887e-5 0.000000e0 0.000000e0
 0.000000e0 0.000000e0 0.000000e0 0.000000e0 1.320440e-3 -2.136588e-3 0.000000e0 0.000000e0
 0.000000e0 0.000000e0 0.000000e0 0.000000e0 1.856811e-2 1.108864e-1 0.000000e0 0.000000e0
 0.000000e0 0.000000e0 0.000000e0 0.000000e0 6.355368e-3 -9.747079e-1 0.000000e0 0.000000e0
2.390000e9 0.000000e0 0.000000e0 0.000000e0 0.000000e0 -3.564078e-3 2.143461e-5 0.000000e0 0.000000e0
 0.000000e0 0.000000e0 0.000000e0 0.000000e0 1.300988e-3 -2.199047e-3 0.000000e0 0.000000e0
 0.000000e0 0.000000e0 0.000000e0 0.000000e0 1.963285e-2 1.103507e-1 0.000000e0 0.000000e0
 0.000000e0 0.000000e0 0.000000e0 0.000000e0 -7.565193e-4 -9.745051e-1 0.000000e0 0.000000e0
2.400000e9 0.000000e0 0.000000e0 0.000000e0 0.000000e0 -3.634532e-3 4.643505e-5 0.000000e0 0.000000e0
 0.000000e0 0.000000e0 0.000000e0 0.000000e0 1.296494e-3 -2.261195e-3 0.000000e0 0.000000e0
 0.000000e0 0.000000e0 0.000000e0 0.000000e0 2.076791e-2 1.101964e-1 0.000000e0 0.000000e0
 0.000000e0 0.000000e0 0.000000e0 0.000000e0 -7.914238e-3 -9.746919e-1 0.000000e0 0.000000e0
2.410000e9 0.000000e0 0.000000e0 0.000000e0 0.000000e0 -3.722659e-3 6.736071e-5 0.000000e0 0.000000e0
 0.000000e0 0.000000e0 0.000000e0 0.000000e0 1.303194e-3 -2.336811e-3 0.000000e0 0.000000e0
 0.000000e0 0.000000e0 0.000000e0 0.000000e0 2.226434e-2 1.102237e-1 0.000000e0 0.000000e0
 0.000000e0 0.000000e0 0.000000e0 0.000000e0 -1.544953e-2 -9.750730e-1 0.000000e0 0.000000e0
2.420000e9 0.000000e0 0.000000e0 0.000000e0 0.000000e0 -3.827933e-3 9.847635e-5 0.000000e0 0.000000e0
 0.000000e0 0.000000e0 0.000000e0 0.000000e0 1.307922e-3 -2.431968e-3 0.000000e0 0.000000e0
 0.000000e0 0.000000e0 0.000000e0 0.000000e0 2.415318e-2 1.100807e-1 0.000000e0 0.000000e0
 0.000000e0 0.000000e0 0.000000e0 0.000000e0 -2.342310e-2 -9.752679e-1 0.000000e0 0.000000e0
2.430000e9 0.000000e0 0.000000e0 0.000000e0 0.000000e0 -3.938985e-3 1.486113e-4 0.000000e0 0.000000e0
 0.000000e0 0.000000e0 0.000000e0 0.000000e0 1.297447e-3 -2.540416e-3 0.000000e0 0.000000e0
 0.000000e0 0.000000e0 0.000000e0 0.000000e0 2.618300e-2 1.095194e-1 0.000000e0 0.000000e0
 0.000000e0 0.000000e0 0.000000e0 0.000000e0 -3.158019e-2 -9.749870e-1 0.000000e0 0.000000e0
2.440000e9 0.000000e0 0.000000e0 0.000000e0 0.000000e0 -4.041661e-3 2.145985e-4 0.000000e0 0.000000e0
 0.000000e0 0.000000e0 0.000000e0 0.000000e0 1.268112e-3 -2.647888e-3 0.000000e0 0.000000e0
 0.000000e0 0.000000e0 0.000000e0 0.000000e0 2.800268e-2 1.085751e-1 0.000000e0 0.000000e0
 0.000000e0 0.000000e0 0.000000e0 0.000000e0 -3.953519e-2 -9.742420e-1 0.000000e0 0.000000e0
2.450000e9 0.000000e0 0.000000e0 0.000000e0 0.000000e0 -4.129378e-3 2.833104e-4 0.000000e0 0.000000e0
 0.000000e0 0.000000e0 0.000000e0 0.000000e0 1.228725e-3 -2.742406e-3 0.000000e0 0.000000e0
 0.000000e0 0.000000e0 0.000000e0 0.000000e0 2.941628e-2 1.075405e-1 0.000000e0 0.000000e0
 0.000000e0 0.000000e0 0.000000e0 0.000000e0 -4.705149e-2 -9.733378e-1 0.000000e0 0.000000e0
2.460000e9 0.000000e0 0.000000e0 0.000000e0 0.000000e0 -4.208258e-3 3.410691e-4 0.000000e0 0.000000e0
 0.000000e0 0.000000e0 0.000000e0 0.000000e0 1.194368e-3 -2.823221e-3 0.000000e0 0.000000e0
 0.000000e0 0.000000e0 0.000000e0 0.000000e0 3.052465e-2 1.067517e-1 0.000000e0 0.000000e0
 0.000000e0 0.000000e0 0.000000e0 0.000000e0 -5.421349e-2 -9.726507e-1 0.000000e0 0.000000e0
2.470000e9 0.000000e0 0.000000e0 0.000000e0 0.000000e0 -4.293109e-3 3.837687e-4 0.000000e0 0.000000e0
 0.000000e0 0.000000e0 0.000000e0 0.000000e0 1.175422e-3 -2.901763e-3 0.000000e0 0.000000e0
 0.000000e0 0.000000e0 0.000000e0 0.000000e0 3.165107e-2 1.063443e-1 0.000000e0 0.000000e0
 0.000000e0 0.000000e0 0.000000e0 0.000000e0 -6.136548e-2 -9.723552e-1 0.000000e0 0.000000e0
2.480000e9 0.000000e0 0.000000e0 0.000000e0 0.000000e0 -4.396908e-3 4.203096e-4 0.000000e0 0.000000e0
 0.000000e0 0.000000e0 0.000000e0 0.000000e0 1.169701e-3 -2.993685e-3 0.000000e0 0.000000e0
 0.000000e0 0.000000e0 0.000000e0 0.000000e0 3.310540e-2 1.061545e-1 0.000000e0 0.000000e0
 0.000000e0 0.000000e0 0.000000e0 0.000000e0 -6.886174e-2 -9.722967e-1 0.000000e0 0.000000e0
2.490000e9 0.000000e0 0.000000e0 0.000000e0 0.000000e0 -4.521285e-3 4.666142e-4 0.000000e0 0.000000e0
 0.000000e0 0.000000e0 0.000000e0 0.000000e0 1.163574e-3 -3.107567e-3 0.000000e0 0.000000e0
 0.000000e0 0.000000e0 0.000000e0 0.000000e0 3.495822e-2 1.058384e-1 0.000000e0 0.000000e0
 0.000000e0 0.000000e0 0.000000e0 0.000000e0 -7.680883e-2 -9.721028e-1 0.000000e0 0.000000e0
2.500000e9 0.000000e0 0.000000e0 0.000000e0 0.000000e0 -4.655014e-3 5.342970e-4 0.000000e0 0.000000e0
 0.000000e0 0.000000e0 0.000000e0 0.000000e0 1.141518e-3 -3.238460e-3 0.000000e0 0.000000e0
 0.000000e0 0.000000e0 0.000000e0 0.000000e0 3.698913e-2 1.051224e-1 0.000000e0 0.000000e0
 0.000000e0 0.000000e0 0.000000e0 0.000000e0 -8.498732e-2 -9.714534e-1 0.000000e0 0.000000e0
2.510000e9 0.000000e0 0.000000e0 0.000000e0 0.000000e0 -4.781889e-3 6.221198e-4 0.000000e0 0.000000e0
 0.000000e0 0.000000e0 0.000000e0 0.000000e0 1.097365e-3 -3.371174e-3 0.000000e0 0.000000e0
 0.000000e0 0.000000e0 0.000000e0 0.000000e0 3.884666e-2 1.040017e-1 0.000000e0 0.000000e0
 0.000000e0 0.000000e0 0.000000e0 0.000000e0 -9.301029e-2 -9.703137e-1 0.000000e0 0.000000e0
2.520000e9 0.000000e0 0.000000e0 0.000000e0 0.000000e0 -4.892532e-3 7.165968e-4 0.000000e0 0.000000e0
 0.000000e0 0.000000e0 0.000000e0 0.000000e0 1.039021e-3 -3.491202e-3 0.000000e0 0.000000e0
 0.000000e0 0.000000e0 0.000000e0 0.000000e0 4.030339e-2 1.027438e-1 0.000000e0 0.000000e0
 0.000000e0 0.000000e0 0.000000e0 0.000000e0 -1.006041e-1 -9.689597e-1 0.000000e0 0.000000e0
2.530000e9 0.000000e0 0.000000e0 0.000000e0 0.000000e0 -4.991597e-3 8.016220e-4 0.000000e0 0.000000e0
 0.000000e0 0.000000e0 0.000000e0 0.000000e0 9.829864e-4 -3.595500e-3 0.000000e0 0.000000e0
 0.000000e0 0.000000e0 0.000000e0 0.000000e0 4.142081e-2 1.016935e-1 0.000000e0 0.000000e0
 0.000000e0 0.000000e0 0.000000e0 0.000000e0 -1.078074e-1 -9.677787e-1 0.000000e0 0.000000e0
2.540000e9 0.000000e0 0.000000e0 0.000000e0 0.000000e0 -5.094925e-3 8.703669e-4 0.000000e0 0.000000e0
 0.000000e0 0.000000e0 0.000000e0 0.000000e0 9.423690e-4 -3.695205e-3 0.000000e0 0.000000e0
 0.000000e0 0.000000e0 0.000000e0 0.000000e0 4.250390e-2 1.010220e-1 0.000000e0 0.000000e0
 0.000000e0 0.000000e0 0.000000e0 0.000000e0 -1.149443e-1 -9.669875e-1 0.000000e0 0.000000e0
2.550000e9 0.000000e0 0.000000e0 0.000000e0 0.000000e0 -5.218390e-3 9.307970e-4 0.000000e0 0.000000e0
 0.000000e0 0.000000e0 0.000000e0 0.000000e0 9.169739e-4 -3.808009e-3 0.000000e0 0.000000e0
 0.000000e0 0.000000e0 0.000000e0 0.000000e0 4.387859e-2 1.006024e-1 0.000000e0 0.000000e0
 0.000000e0 0.000000e0 0.000000e0 0.000000e0 -1.223890e-1 -9.664739e-1 0.000000e0 0.000000e0
2.560000e9 0.000000e0 0.000000e0 0.000000e0 0.000000e0 -5.366319e-3 1.000535e-3 0.000000e0 0.000000e0
 0.000000e0 0.000000e0 0.000000e0 0.000000e0 8.928294e-4 -3.945464e-3 0.000000e0 0.000000e0
 0.000000e0 0.000000e0 0.000000e0 0.000000e0 4.565390e-2 1.001014e-1 0.000000e0 0.000000e0
 0.000000e0 0.000000e0 0.000000e0 0.000000e0 -1.302938e-1 -9.658768e-1 0.000000e0 0.000000e0
2.570000e9 0.000000e0 0.000000e0 0.000000e0 0.000000e0 -5.527977e-3 1.094457e-3 0.000000e0 0.000000e0
 0.000000e0 0.000000e0 0.000000e0 0.000000e0 8.518200e-4 -4.104356e-3 0.000000e0 0.000000e0
 0.000000e0 0.000000e0 0.000000e0 0.000000e0 4.764178e-2 9.922222e-2 0.000000e0 0.000000e0
 0.000000e0 0.000000e0 0.000000e0 0.000000e0 -1.384771e-1 -9.648478e-1 0.000000e0 0.000000e0
2.580000e9 0.000000e0 0.000000e0 0.000000e0 0.000000e0 -5.684985e-3 1.213858e-3 0.000000e0 0.000000e0
 0.000000e0 0.000000e0 0.000000e0 0.000000e0 7.847008e-4 -4.268642e-3 0.000000e0 0.000000e0
 0.000000e0 0.000000e0 0.000000e0 0.000000e0 4.949309e-2 9.792046e-2 0.000000e0 0.000000e0
 0.000000e0 0.000000e0 0.000000e0 0.000000e0 -1.465538e-1 -9.633044e-1 0.000000e0 0.000000e0
2.590000e9 0.000000e0 0.000000e0 0.000000e0 0.000000e0 -5.824638e-3 1.345209e-3 0.000000e0 0.000000e0
 0.000000e0 0.000000e0 0.000000e0 0.000000e0 6.980420e-4 -4.420907e-3 0.000000e0 0.000000e0
 0.000000e0 0.000000e0 0.000000e0 0.000000e0 5.095100e-2 9.643667e-2 0.000000e0 0.000000e0
 0.000000e0 0.000000e0 0.000000e0 0.000000e0 -1.542145e-1 -9.614913e-1 0.000000e0 0.000000e0
2.600000e9 0.000000e0 0.000000e0 0.000000e0 0.000000e0 -5.949560e-3 1.469776e-3 0.000000e0 0.000000e0
 0.000000e0 0.000000e0 0.000000e0 0.000000e0 6.097684e-4 -4.555252e-3 0.000000e0 0.000000e0
 0.000000e0 0.000000e0 0.000000e0 0.000000e0 5.203751e-2 9.512154e-2 0.000000e0 0.000000e0
 0.000000e0 0.000000e0 0.000000e0 0.000000e0 -1.614510e-1 -9.598036e-1 0.000000e0 0.000000e0
2.610000e9 0.000000e0 0.000000e0 0.000000e0 0.000000e0 -6.076459e-3 1.577445e-3 0.000000e0 0.000000e0
 0.000000e0 0.000000e0 0.000000e0 0.000000e0 5.361544e-4 -4.682191e-3 0.000000e0 0.000000e0
 0.000000e0 0.000000e0 0.000000e0 0.000000e0 5.303703e-2 9.418055e-2 0.000000e0 0.000000e0
 0.000000e0 0.000000e0 0.000000e0 0.000000e0 -1.685636e-1 -9.584996e-1 0.000000e0 0.000000e0
2.620000e9 0.000000e0 0.000000e0 0.000000e0 0.000000e0 -6.224485e-3 1.674769e-3 0.000000e0 0.000000e0
 0.000000e0 0.000000e0 0.000000e0 0.000000e0 4.795279e-4 -4.821640e-3 0.000000e0 0.000000e0
 0.000000e0 0.000000e0 0.000000e0 0.000000e0 5.428890e-2 9.352408e-2 0.000000e0 0.000000e0
 0.000000e0 0.000000e0 0.000000e0 0.000000e0 -1.759442e-1 -9.575117e-1 0.000000e0 0.000000e0
2.630000e9 0.000000e0 0.000000e0 0.000000e0 0.000000e0 -6.401342e-3 1.781096e-3 0.000000e0 0.000000e0
 0.000000e0 0.000000e0 0.000000e0 0.000000e0 4.257554e-4 -4.988717e-3 0.000000e0 0.000000e0
 0.000000e0 0.000000e0 0.000000e0 0.000000e0 5.593949e-2 9.283221e-2 0.000000e0 0.000000e0
 0.000000e0 0.000000e0 0.000000e0 0.000000e0 -1.837908e-1 -9.564935e-1 0.000000e0 0.000000e0
2.640000e9 0.000000e0 0.000000e0 0.000000e0 0.000000e0 -6.597261e-3 1.915150e-3 0.000000e0 0.000000e0
 0.000000e0 0.000000e0 0.000000e0 0.000000e0 3.537384e-4 -5.182523e-3 0.000000e0 0.000000e0
 0.000000e0 0.000000e0 0.000000e0 0.000000e0 5.783437e-2 9.178740e-2 0.000000e0 0.000000e0
 0.000000e0 0.000000e0 0.000000e0 0.000000e0 -1.919624e-1 -9.550699e-1 0.000000e0 0.000000e0
2.650000e9 0.000000e0 0.000000e0 0.000000e0 0.000000e0 -6.791577e-3 2.081564e-3 0.000000e0 0.000000e0
 0.000000e0 0.000000e0 0.000000e0 0.000000e0 2.504037e-4 -5.386278e-3 0.000000e0 0.000000e0
 0.000000e0 0.000000e0 0.000000e0 0.000000e0 5.962934e-2 9.030605e-2 0.000000e0 0.000000e0
 0.000000e0 0.000000e0 0.000000e0 0.000000e0 -2.000791e-1 -9.531102e-1 0.000000e0 0.000000e0
2.660000e9 0.000000e0 0.000000e0 0.000000e0 0.000000e0 -6.967600e-3 2.267243e-3 0.000000e0 0.000000e0
 0.000000e0 0.000000e0 0.000000e0 0.000000e0 1.203653e-4 -5.579176e-3 0.000000e0 0.000000e0
 0.000000e0 0.000000e0 0.000000e0 0.000000e0 6.104015e-2 8.860016e-2 0.000000e0 0.000000e0
 0.000000e0 0.000000e0 0.000000e0 0.000000e0 -2.077970e-1 -9.508242e-1 0.000000e0 0.000000e0
2.670000e9 0.000000e0 0.000000e0 0.000000e0 0.000000e0 -7.125163e-3 2.450644e-3 0.000000e0 0.000000e0
 0.000000e0 0.000000e0 0.000000e0 0.000000e0 -1.708541e-5 -5.751708e-3 0.000000e0 0.000000e0
 0.000000e0 0.000000e0 0.000000e0 0.000000e0 6.204910e-2 8.702359e-2 0.000000e0 0.000000e0
 0.000000e0 0.000000e0 0.000000e0 0.000000e0 -2.150591e-1 -9.486118e-1 0.000000e0 0.000000e0
2.680000e9 0.000000e0 0.000000e0 0.000000e0 0.000000e0 -7.281551e-3 2.617698e-3 0.000000e0 0.000000e0
 0.000000e0 0.000000e0 0.000000e0 0.000000e0 -1.419704e-4 -5.913285e-3 0.000000e0 0.000000e0
 0.000000e0 0.000000e0 0.000000e0 0.000000e0 6.291785e-2 8.581459e-2 0.000000e0 0.000000e0
 0.000000e0 0.000000e0 0.000000e0 0.000000e0 -2.221387e-1 -9.467723e-1 0.000000e0 0.000000e0
2.690000e9 0.000000e0 0.000000e0 0.000000e0 0.000000e0 -7.459610e-3 2.772926e-3 0.000000e0 0.000000e0
 0.000000e0 0.000000e0 0.000000e0 0.000000e0 -2.487449e-4 -6.086229e-3 0.000000e0 0.000000e0
 0.000000e0 0.000000e0 0.000000e0 0.000000e0 6.399656e-2 8.492179e-2 0.000000e0 0.000000e0
 0.000000e0 0.000000e0 0.000000e0 0.000000e0 -2.294424e-1 -9.452853e-1 0.000000e0 0.000000e0
2.700000e9 0.000000e0 0.000000e0 0.000000e0 0.000000e0 -7.671270e-3 2.937390e-3 0.000000e0 0.000000e0
 0.000000e0 0.000000e0 0.000000e0 0.000000e0 -3.514530e-4 -6.289984e-3 0.000000e0 0.000000e0
 0.000000e0 0.000000e0 0.000000e0 0.000000e0 6.546787e-2 8.404095e-2 0.000000e0 0.000000e0
 0.000000e0 0.000000e0 0.000000e0 0.000000e0 -2.372147e-1 -9.438222e-1 0.000000e0 0.000000e0
2.710000e9 0.000000e0 0.000000e0 0.000000e0 0.000000e0 -7.908368e-3 3.134417e-3 0.000000e0 0.000000e0
 0.000000e0 0.000000e0 0.000000e0 0.000000e0 -4.746875e-4 -6.526745e-3 0.000000e0 0.000000e0
 0.000000e0 0.000000e0 0.000000e0 0.000000e0 6.721213e-2 8.283623e-2 0.000000e0 0.000000e0
 0.000000e0 0.000000e0 0.000000e0 0.000000e0 -2.453583e-1 -9.419835e-1 0.000000e0 0.000000e0
2.720000e9 0.000000e0 0.000000e0 0.000000e0 0.000000e0 -8.147859e-3 3.373070e-3 0.000000e0 0.000000e0
 0.000000e0 0.000000e0 0.000000e0 0.000000e0 -6.363913e-4 -6.779177e-3 0.000000e0 0.000000e0
 0.000000e0 0.000000e0 0.000000e0 0.000000e0 6.889268e-2 8.118546e-2 0.000000e0 0.000000e0
 0.000000e0 0.000000e0 0.000000e0 0.000000e0 -2.535016e-1 -9.395884e-1 0.000000e0 0.000000e0
2.730000e9 0.000000e0 0.000000e0 0.000000e0 0.000000e0 -8.368207e-3 3.641416e-3 0.000000e0 0.000000e0
 0.000000e0 0.000000e0 0.000000e0 0.000000e0 -8.348213e-4 -7.022451e-3 0.000000e0 0.000000e0
 0.000000e0 0.000000e0 0.000000e0 0.000000e0 7.019973e-2 7.927040e-2 0.000000e0 0.000000e0
 0.000000e0 0.000000e0 0.000000e0 0.000000e0 -2.612675e-1 -9.368086e-1 0.000000e0 0.000000e0
2.740000e9 0.000000e0 0.000000e0 0.000000e0 0.000000e0 -8.565403e-3 3.915009e-3 0.000000e0 0.000000e0
 0.000000e0 0.000000e0 0.000000e0 0.000000e0 -1.049497e-3 -7.242376e-3 0.000000e0 0.000000e0
 0.000000e0 0.000000e0 0.000000e0 0.000000e0 7.107576e-2 7.744563e-2 0.000000e0 0.000000e0
 0.000000e0 0.000000e0 0.000000e0 0.000000e0 -2.685480e-1 -9.340453e-1 0.000000e0 0.000000e0
2.750000e9 0.000000e0 0.000000e0 0.000000e0 0.000000e0 -8.756790e-3 4.175020e-3 0.000000e0 0.000000e0
 0.000000e0 0.000000e0 0.000000e0 0.000000e0 -1.256090e-3 -7.446514e-3 0.000000e0 0.000000e0
 0.000000e0 0.000000e0 0.000000e0 0.000000e0 7.175754e-2 7.598065e-2 0.000000e0 0.000000e0
 0.000000e0 0.000000e0 0.000000e0 0.000000e0 -2.755856e-1 -9.316386e-1 0.000000e0 0.000000e0
2.760000e9 0.000000e0 0.000000e0 0.000000e0 0.000000e0 -8.969328e-3 4.423128e-3 0.000000e0 0.000000e0
 0.000000e0 0.000000e0 0.000000e0 0.000000e0 -1.444922e-3 -7.659740e-3 0.000000e0 0.000000e0
 0.000000e0 0.000000e0 0.000000e0 0.000000e0 7.260344e-2 7.486313e-2 0.000000e0 0.000000e0
 0.000000e0 0.000000e0 0.000000e0 0.000000e0 -2.827990e-1 -9.296177e-1 0.000000e0 0.000000e0
2.770000e9 0.000000e0 0.000000e0 0.000000e0 0.000000e0 -9.220213e-3 4.682062e-3 0.000000e0 0.000000e0
 0.000000e0 0.000000e0 0.000000e0 0.000000e0 -1.629594e-3 -7.906777e-3 0.000000e0 0.000000e0
 0.000000e0 0.000000e0 0.000000e0 0.000000e0 7.383122e-2 7.380702e-2 0.000000e0 0.000000e0
 0.000000e0 0.000000e0 0.000000e0 0.000000e0 -2.904798e-1 -9.276762e-1 0.000000e0 0.000000e0
2.780000e9 0.000000e0 0.000000e0 0.000000e0 0.000000e0 -9.503740e-3 4.980735e-3 0.000000e0 0.000000e0
 0.000000e0 0.000000e0 0.000000e0 0.000000e0 -1.838891e-3 -8.193962e-3 0.000000e0 0.000000e0
 0.000000e0 0.000000e0 0.000000e0 0.000000e0 7.535713e-2 7.246068e-2 0.000000e0 0.000000e0
 0.000000e0 0.000000e0 0.000000e0 0.000000e0 -2.985775e-1 -9.253913e-1 0.000000e0 0.000000e0
2.790000e9 0.000000e0 0.000000e0 0.000000e0 0.000000e0 -9.794376e-3 5.334171e-3 0.000000e0 0.000000e0
 0.000000e0 0.000000e0 0.000000e0 0.000000e0 -2.097115e-3 -8.503660e-3 0.000000e0 0.000000e0
 0.000000e0 0.000000e0 0.000000e0 0.000000e0 7.685440e-2 7.066404e-2 0.000000e0 0.000000e0
 0.000000e0 0.000000e0 0.000000e0 0.000000e0 -3.067329e-1 -9.225309e-1 0.000000e0 0.000000e0
2.800000e9 0.000000e0 0.000000e0 0.000000e0 0.000000e0 -1.006457e-2 5.732755e-3 0.000000e0 0.000000e0
 0.000000e0 0.000000e0 0.000000e0 0.000000e0 -2.406794e-3 -8.806111e-3 0.000000e0 0.000000e0
 0.000000e0 0.000000e0 0.000000e0 0.000000e0 7.798969e-2 6.856727e-2 0.000000e0 0.000000e0
 0.000000e0 0.000000e0 0.000000e0 0.000000e0 -3.145366e-1 -9.192240e-1 0.000000e0 0.000000e0
2.810000e9 0.000000e0 0.000000e0 0.000000e0 0.000000e0 -1.030489e-2 6.149204e-3 0.000000e0 0.000000e0
 0.000000e0 0.000000e0 0.000000e0 0.000000e0 -2.746672e-3 -9.080843e-3 0.000000e0 0.000000e0
 0.000000e0 0.000000e0 0.000000e0 0.000000e0 7.866558e-2 6.652333e-2 0.000000e0 0.000000e0
 0.000000e0 0.000000e0 0.000000e0 0.000000e0 -3.218270e-1 -9.158700e-1 0.000000e0 0.000000e0
2.820000e9 0.000000e0 0.000000e0 0.000000e0 0.000000e0 -1.053179e-2 6.558988e-3 0.000000e0 0.000000e0
 0.000000e0 0.000000e0 0.000000e0 0.000000e0 -3.087299e-3 -9.332318e-3 0.000000e0 0.000000e0
 0.000000e0 0.000000e0 0.000000e0 0.000000e0 7.909188e-2 6.483168e-2 0.000000e0 0.000000e0
 0.000000e0 0.000000e0 0.000000e0 0.000000e0 -3.288112e-1 -9.128489e-1 0.000000e0 0.000000e0
2.830000e9 0.000000e0 0.000000e0 0.000000e0 0.000000e0 -1.077660e-2 6.959872e-3 0.000000e0 0.000000e0
 0.000000e0 0.000000e0 0.000000e0 0.000000e0 -3.413627e-3 -9.587916e-3 0.000000e0 0.000000e0
 0.000000e0 0.000000e0 0.000000e0 0.000000e0 7.963269e-2 6.351978e-2 0.000000e0 0.000000e0
 0.000000e0 0.000000e0 0.000000e0 0.000000e0 -3.359173e-1 -9.102430e-1 0.000000e0 0.000000e0
2.840000e9 0.000000e0 0.000000e0 0.000000e0 0.000000e0 -1.106299e-2 7.376131e-3 0.000000e0 0.000000e0
 0.000000e0 0.000000e0 0.000000e0 0.000000e0 -3.738291e-3 -9.878785e-3 0.000000e0 0.000000e0
 0.000000e0 0.000000e0 0.000000e0 0.000000e0 8.053965e-2 6.232231e-2 0.000000e0 0.000000e0
 0.000000e0 0.000000e0 0.000000e0 0.000000e0 -3.434842e-1 -9.077719e-1 0.000000e0 0.000000e0
2.850000e9 0.000000e0 0.000000e0 0.000000e0 0.000000e0 -1.138875e-2 7.843570e-3 0.000000e0 0.000000e0
 0.000000e0 0.000000e0 0.000000e0 0.000000e0 -4.095243e-3 -1.021675e-2 0.000000e0 0.000000e0
 0.000000e0 0.000000e0 0.000000e0 0.000000e0 8.176579e-2 6.087446e-2 0.000000e0 0.000000e0
 0.000000e0 0.000000e0 0.000000e0 0.000000e0 -3.515127e-1 -9.049920e-1 0.000000e0 0.000000e0
2.860000e9 0.000000e0 0.000000e0 0.000000e0 0.000000e0 -1.172563e-2 8.385369e-3 0.000000e0 0.000000e0
 0.000000e0 0.000000e0 0.000000e0 0.000000e0 -4.517348e-3 -1.058414e-2 0.000000e0 0.000000e0
 0.000000e0 0.000000e0 0.000000e0 0.000000e0 8.299659e-2 5.897938e-2 0.000000e0 0.000000e0
 0.000000e0 0.000000e0 0.000000e0 0.000000e0 -3.596597e-1 -9.016171e-1 0.000000e0 0.000000e0
2.870000e9 0.000000e0 0.000000e0 0.000000e0 0.000000e0 -1.203825e-2 8.996062e-3 0.000000e0 0.000000e0
 0.000000e0 0.000000e0 0.000000e0 0.000000e0 -5.013593e-3 -1.094479e-2 0.000000e0 0.000000e0
 0.000000e0 0.000000e0 0.000000e0 0.000000e0 8.387708e-2 5.675474e-2 0.000000e0 0.000000e0
 0.000000e0 0.000000e0 0.000000e0 0.000000e0 -3.674842e-1 -8.977287e-1 0.000000e0 0.000000e0
2.880000e9 0.000000e0 0.000000e0 0.000000e0 0.000000e0 -1.230919e-2 9.645897e-3 0.000000e0 0.000000e0
 0.000000e0 0.000000e0 0.000000e0 0.000000e0 -5.562776e-3 -1.126931e-2 0.000000e0 0.000000e0
 0.000000e0 0.000000e0 0.000000e0 0.000000e0 8.427014e-2 5.454999e-2 0.000000e0 0.000000e0
 0.000000e0 0.000000e0 0.000000e0 0.000000e0 -3.747679e-1 -8.937199e-1 0.000000e0 0.000000e0
2.890000e9 0.000000e0 0.000000e0 0.000000e0 0.000000e0 -1.255205e-2 1.030351e-2 0.000000e0 0.000000e0
 0.000000e0 0.000000e0 0.000000e0 0.000000e0 -6.129370e-3 -1.155672e-2 0.000000e0 0.000000e0
 0.000000e0 0.000000e0 0.000000e0 0.000000e0 8.435698e-2 5.269346e-2 0.000000e0 0.000000e0
 0.000000e0 0.000000e0 0.000000e0 0.000000e0 -3.816767e-1 -8.900110e-1 0.000000e0 0.000000e0
2.900000e9 0.000000e0 0.000000e0 0.000000e0 0.000000e0 -1.280226e-2 1.096120e-2 0.000000e0 0.000000e0
 0.000000e0 0.000000e0 0.000000e0 0.000000e0 -6.691151e-3 -1.183625e-2 0.000000e0 0.000000e0
 0.000000e0 0.000000e0 0.000000e0 0.000000e0 8.450512e-2 5.125335e-2 0.000000e0 0.000000e0
 0.000000e0 0.000000e0 0.000000e0 0.000000e0 -3.886444e-1 -8.867408e-1 0.000000e0 0.000000e0
2.910000e9 0.000000e0 0.000000e0 0.000000e0 0.000000e0 -1.309097e-2 1.164439e-2 0.000000e0 0.000000e0
 0.000000e0 0.000000e0 0.000000e0 0.000000e0 -7.258872e-3 -1.214656e-2 0.000000e0 0.000000e0
 0.000000e0 0.000000e0 0.000000e0 0.000000e0 8.499889e-2 4.998770e-2 0.000000e0 0.000000e0
 0.000000e0 0.000000e0 0.000000e0 0.000000e0 -3.960585e-1 -8.836598e-1 0.000000e0 0.000000e0
2.920000e9 0.000000e0 0.000000e0 0.000000e0 0.000000e0 -1.342045e-2 1.239739e-2 0.000000e0 0.000000e0
 0.000000e0 0.000000e0 0.000000e0 0.000000e0 -7.872910e-3 -1.250650e-2 0.000000e0 0.000000e0
 0.000000e0 0.000000e0 0.000000e0 0.000000e0 8.582894e-2 4.852154e-2 0.000000e0 0.000000e0
 0.000000e0 0.000000e0 0.000000e0 0.000000e0 -4.039746e-1 -8.803051e-1 0.000000e0 0.000000e0
2.930000e9 0.000000e0 0.000000e0 0.000000e0 0.000000e0 -1.375897e-2 1.325456e-2 0.000000e0 0.000000e0
 0.000000e0 0.000000e0 0.000000e0 0.000000e0 -8.577884e-3 -1.289828e-2 0.000000e0 0.000000e0
 0.000000e0 0.000000e0 0.000000e0 0.000000e0 8.669529e-2 4.662312e-2 0.000000e0 0.000000e0
 0.000000e0 0.000000e0 0.000000e0 0.000000e0 -4.120702e-1 -8.763338e-1 0.000000e0 0.000000e0
2.940000e9 0.000000e0 0.000000e0 0.000000e0 0.000000e0 -1.406009e-2 1.421729e-2 0.000000e0 0.000000e0
 0.000000e0 0.000000e0 0.000000e0 0.000000e0 -9.392575e-3 -1.327649e-2 0.000000e0 0.000000e0
 0.000000e0 0.000000e0 0.000000e0 0.000000e0 8.722371e-2 4.437763e-2 0.000000e0 0.000000e0
 0.000000e0 0.000000e0 0.000000e0 0.000000e0 -4.198728e-1 -8.717742e-1 0.000000e0 0.000000e0
2.950000e9 0.000000e0 0.000000e0 0.000000e0 0.000000e0 -1.429363e-2 1.525396e-2 0.000000e0 0.000000e0
 0.000000e0 0.000000e0 0.000000e0 0.000000e0 -1.029714e-2 -1.359789e-2 0.000000e0 0.000000e0
 0.000000e0 0.000000e0 0.000000e0 0.000000e0 8.723841e-2 4.213008e-2 0.000000e0 0.000000e0
 0.000000e0 0.000000e0 0.000000e0 0.000000e0 -4.271021e-1 -8.670085e-1 0.000000e0 0.000000e0
2.960000e9 0.000000e0 0.000000e0 0.000000e0 0.000000e0 -1.446607e-2 1.632453e-2 0.000000e0 0.000000e0
 0.000000e0 0.000000e0 0.000000e0 0.000000e0 -1.124835e-2 -1.385125e-2 0.000000e0 0.000000e0
 0.000000e0 0.000000e0 0.000000e0 0.000000e0 8.689147e-2 4.023722e-2 0.000000e0 0.000000e0
 0.000000e0 0.000000e0 0.000000e0 0.000000e0 -4.338762e-1 -8.624971e-1 0.000000e0 0.000000e0
2.970000e9 0.000000e0 0.000000e0 0.000000e0 0.000000e0 -1.461477e-2 1.741283e-2 0.000000e0 0.000000e0
 0.000000e0 0.000000e0 0.000000e0 0.000000e0 -1.221339e-2 -1.406507e-2 0.000000e0 0.000000e0
 0.000000e0 0.000000e0 0.000000e0 0.000000e0 8.655267e-2 3.880907e-2 0.000000e0 0.000000e0
 0.000000e0 0.000000e0 0.000000e0 0.000000e0 -4.406297e-1 -8.584404e-1 0.000000e0 0.000000e0
2.980000e9 0.000000e0 0.000000e0 0.000000e0 0.000000e0 -1.477835e-2 1.854360e-2 0.000000e0 0.000000e0
 0.000000e0 0.000000e0 0.000000e0 0.000000e0 -1.319865e-2 -1.428580e-2 0.000000e0 0.000000e0
 0.000000e0 0.000000e0 0.000000e0 0.000000e0 8.653873e-2 3.762993e-2 0.000000e0 0.000000e0
 0.000000e0 0.000000e0 0.000000e0 0.000000e0 -4.477980e-1 -8.546258e-1 0.000000e0 0.000000e0
2.990000e9 0.000000e0 0.000000e0 0.000000e0 0.000000e0 -1.496368e-2 1.977046e-2 0.000000e0 0.000000e0
 0.000000e0 0.000000e0 0.000000e0 0.000000e0 -1.425152e-2 -1.454036e-2 0.000000e0 0.000000e0
 0.000000e0 0.000000e0 0.000000e0 0.000000e0 8.687940e-2 3.631814e-2 0.000000e0 0.000000e0
 0.000000e0 0.000000e0 0.000000e0 0.000000e0 -4.554964e-1 -8.505738e-1 0.000000e0 0.000000e0
3.000000e9 0.000000e0 0.000000e0 0.000000e0 0.000000e0 -1.513317e-2 2.114188e-2 0.000000e0 0.000000e0
 0.000000e0 0.000000e0 0.000000e0 0.000000e0 -1.543198e-2 -1.480954e-2 0.000000e0 0.000000e0
 0.000000e0 0.000000e0 0.000000e0 0.000000e0 8.729252e-2 3.460989e-2 0.000000e0 0.000000e0
 0.000000e0 0.000000e0 0.000000e0 0.000000e0 -4.634261e-1 -8.458820e-1 0.000000e0 0.000000e0
3.010000e9 0.000000e0 0.000000e0 0.000000e0 0.000000e0 -1.522305e-2 2.266855e-2 0.000000e0 0.000000e0
 0.000000e0 0.000000e0 0.000000e0 0.000000e0 -1.677243e-2 -1.503282e-2 0.000000e0 0.000000e0
 0.000000e0 0.000000e0 0.000000e0 0.000000e0 8.738871e-2 3.255937e-2 0.000000e0 0.000000e0
 0.000000e0 0.000000e0 0.000000e0 0.000000e0 -4.710819e-1 -8.405194e-1 0.000000e0 0.000000e0
3.020000e9 0.000000e0 0.000000e0 0.000000e0 0.000000e0 -1.518118e-2 2.431603e-2 0.000000e0 0.000000e0
 0.000000e0 0.000000e0 0.000000e0 0.000000e0 -1.825466e-2 -1.514327e-2 0.000000e0 0.000000e0
 0.000000e0 0.000000e0 0.000000e0 0.000000e0 8.695745e-2 3.050735e-2 0.000000e0 0.000000e0
 0.000000e0 0.000000e0 0.000000e0 0.000000e0 -4.781142e-1 -8.348537e-1 0.000000e0 0.000000e0
3.030000e9 0.000000e0 0.000000e0 0.000000e0 0.000000e0 -1.499783e-2 2.602979e-2 0.000000e0 0.000000e0
 0.000000e0 0.000000e0 0.000000e0 0.000000e0 -1.982230e-2 -1.510915e-2 0.000000e0 0.000000e0
 0.000000e0 0.000000e0 0.000000e0 0.000000e0 8.612488e-2 2.883875e-2 0.000000e0 0.000000e0
 0.000000e0 0.000000e0 0.000000e0 0.000000e0 -4.845831e-1 -8.293876e-1 0.000000e0 0.000000e0
3.040000e9 0.000000e0 0.000000e0 0.000000e0 0.000000e0 -1.470636e-2 2.777606e-2 0.000000e0 0.000000e0
 0.000000e0 0.000000e0 0.000000e0 0.000000e0 -2.142222e-2 -1.495171e-2 0.000000e0 0.000000e0
 0.000000e0 0.000000e0 0.000000e0 0.000000e0 8.526592e-2 2.770571e-2 0.000000e0 0.000000e0
 0.000000e0 0.000000e0 0.000000e0 0.000000e0 -4.909164e-1 -8.243918e-1 0.000000e0 0.000000e0
3.050000e9 0.000000e0 0.000000e0 0.000000e0 0.000000e0 -1.435102e-2 2.956977e-2 0.000000e0 0.000000e0
 0.000000e0 0.000000e0 0.000000e0 0.000000e0 -2.304658e-2 -1.472384e-2 0.000000e0 0.000000e0
 0.000000e0 0.000000e0 0.000000e0 0.000000e0 8.473304e-2 2.691973e-2 0.000000e0 0.000000e0
 0.000000e0 0.000000e0 0.000000e0 0.000000e0 -4.975972e-1 -8.197011e-1 0.000000e0 0.000000e0
3.060000e9 0.000000e0 0.000000e0 0.000000e0 0.000000e0 -1.394321e-2 3.146759e-2 0.000000e0 0.000000e0
 0.000000e0 0.000000e0 0.000000e0 0.000000e0 -2.474392e-2 -1.446196e-2 0.000000e0 0.000000e0
 0.000000e0 0.000000e0 0.000000e0 0.000000e0 8.459992e-2 2.609400e-2 0.000000e0 0.000000e0
 0.000000e0 0.000000e0 0.000000e0 0.000000e0 -5.048042e-1 -8.148265e-1 0.000000e0 0.000000e0
3.070000e9 0.000000e0 0.000000e0 0.000000e0 0.000000e0 -1.343719e-2 3.352866e-2 0.000000e0 0.000000e0
 0.000000e0 0.000000e0 0.000000e0 0.000000e0 -2.658818e-2 -1.414435e-2 0.000000e0 0.000000e0
 0.000000e0 0.000000e0 0.000000e0 0.000000e0 8.460913e-2 2.493360e-2 0.000000e0 0.000000e0
 0.000000e0 0.000000e0 0.000000e0 0.000000e0 -5.122669e-1 -8.093074e-1 0.000000e0 0.000000e0
3.080000e9 0.000000e0 0.000000e0 0.000000e0 0.000000e0 -1.274450e-2 3.576861e-2 0.000000e0 0.000000e0
 0.000000e0 0.000000e0 0.000000e0 0.000000e0 -2.862411e-2 -1.368734e-2 0.000000e0 0.000000e0
 0.000000e0 0.000000e0 0.000000e0 0.000000e0 8.436511e-2 2.346097e-2 0.000000e0 0.000000e0
 0.000000e0 0.000000e0 0.000000e0 0.000000e0 -5.194461e-1 -8.030517e-1 0.000000e0 0.000000e0
3.090000e9 0.000000e0 0.000000e0 0.000000e0 0.000000e0 -1.177972e-2 3.813955e-2 0.000000e0 0.000000e0
 0.000000e0 0.000000e0 0.000000e0 0.000000e0 -3.082683e-2 -1.298623e-2 0.000000e0 0.000000e0
 0.000000e0 0.000000e0 0.000000e0 0.000000e0 8.363301e-2 2.200909e-2 0.000000e0 0.000000e0
 0.000000e0 0.000000e0 0.000000e0 0.000000e0 -5.259147e-1 -7.964137e-1 0.000000e0 0.000000e0
3.100000e9 0.000000e0 0.000000e0 0.000000e0 0.000000e0 -1.050692e-2 4.055216e-2 0.000000e0 0.000000e0
 0.000000e0 0.000000e0 0.000000e0 0.000000e0 -3.310666e-2 -1.197513e-2 0.000000e0 0.000000e0
 0.000000e0 0.000000e0 0.000000e0 0.000000e0 8.252378e-2 2.098397e-2 0.000000e0 0.000000e0
 0.000000e0 0.000000e0 0.000000e0 0.000000e0 -5.316648e-1 -7.899494e-1 0.000000e0 0.000000e0
3.110000e9 0.000000e0 0.000000e0 0.000000e0 0.000000e0 -8.953677e-3 4.292660e-2 0.000000e0 0.000000e0
 0.000000e0 0.000000e0 0.000000e0 0.000000e0 -3.535964e-2 -1.066382e-2 0.000000e0 0.000000e0
 0.000000e0 0.000000e0 0.000000e0 0.000000e0 8.142704e-2 2.056909e-2 0.000000e0 0.000000e0
 0.000000e0 0.000000e0 0.000000e0 0.000000e0 -5.371136e-1 -7.840191e-1 0.000000e0 0.000000e0
3.120000e9 0.000000e0 0.000000e0 0.000000e0 0.000000e0 -7.180606e-3 4.523741e-2 0.000000e0 0.000000e0
 0.000000e0 0.000000e0 0.000000e0 0.000000e0 -3.753107e-2 -9.122538e-3 0.000000e0 0.000000e0
 0.000000e0 0.000000e0 0.000000e0 0.000000e0 8.073823e-2 2.058951e-2 0.000000e0 0.000000e0
 0.000000e0 0.000000e0 0.000000e0 0.000000e0 -5.427991e-1 -7.785277e-1 0.000000e0 0.000000e0
3.130000e9 0.000000e0 0.000000e0 0.000000e0 0.000000e0 -5.225523e-3 4.751950e-2 0.000000e0 0.000000e0
 0.000000e0 0.000000e0 0.000000e0 0.000000e0 -3.964622e-2 -7.420775e-3 0.000000e0 0.000000e0
 0.000000e0 0.000000e0 0.000000e0 0.000000e0 8.057938e-2 2.063779e-2 0.000000e0 0.000000e0
 0.000000e0 0.000000e0 0.000000e0 0.000000e0 -5.489813e-1 -7.729941e-1 0.000000e0 0.000000e0
3.140000e9 0.000000e0 0.000000e0 0.000000e0 0.000000e0 -3.061072e-3 4.982768e-2 0.000000e0 0.000000e0
 0.000000e0 0.000000e0 0.000000e0 0.000000e0 -4.178183e-2 -5.560733e-3 0.000000e0 0.000000e0
 0.000000e0 0.000000e0 0.000000e0 0.000000e0 8.071993e-2 2.037149e-2 0.000000e0 0.000000e0
 0.000000e0 0.000000e0 0.000000e0 0.000000e0 -5.554389e-1 -7.669066e-1 0.000000e0 0.000000e0
3.150000e9 0.000000e0 0.000000e0 0.000000e0 0.000000e0 -5.979926e-4 5.217499e-2 0.000000e0 0.000000e0
 0.000000e0 0.000000e0 0.000000e0 0.000000e0 -4.399218e-2 -3.454597e-3 0.000000e0 0.000000e0
 0.000000e0 0.000000e0 0.000000e0 0.000000e0 8.075889e-2 1.976363e-2 0.000000e0 0.000000e0
 0.000000e0 0.000000e0 0.000000e0 0.000000e0 -5.616161e-1 -7.601116e-1 0.000000e0 0.000000e0
3.160000e9 0.000000e0 0.000000e0 0.000000e0 0.000000e0 2.263487e-3 5.449234e-2 0.000000e0 0.000000e0
 0.000000e0 0.000000e0 0.000000e0 0.000000e0 -4.623886e-2 -9.687800e-4 0.000000e0 0.000000e0
 0.000000e0 0.000000e0 0.000000e0 0.000000e0 8.043641e-2 1.911867e-2 0.000000e0 0.000000e0
 0.000000e0 0.000000e0 0.000000e0 0.000000e0 -5.670198e-1 -7.529510e-1 0.000000e0 0.000000e0
3.170000e9 0.000000e0 0.000000e0 0.000000e0 0.000000e0 5.565357e-3 5.664030e-2 0.000000e0 0.000000e0
 0.000000e0 0.000000e0 0.000000e0 0.000000e0 -4.837663e-2 1.987574e-3 0.000000e0 0.000000e0
 0.000000e0 0.000000e0 0.000000e0 0.000000e0 7.984396e-2 1.883796e-2 0.000000e0 0.000000e0
 0.000000e0 0.000000e0 0.000000e0 0.000000e0 -5.715847e-1 -7.460408e-1 0.000000e0 0.000000e0
3.180000e9 0.000000e0 0.000000e0 0.000000e0 0.000000e0 9.252126e-3 5.847060e-2 0.000000e0 0.000000e0
 0.000000e0 0.000000e0 0.000000e0 0.000000e0 -5.021458e-2 5.387638e-3 0.000000e0 0.000000e0
 0.000000e0 0.000000e0 0.000000e0 0.000000e0 7.937323e-2 1.910539e-2 0.000000e0 0.000000e0
 0.000000e0 0.000000e0 0.000000e0 0.000000e0 -5.757377e-1 -7.398446e-1 0.000000e0 0.000000e0
3.190000e9 0.000000e0 0.000000e0 0.000000e0 0.000000e0 1.318916e-2 5.990073e-2 0.000000e0 0.000000e0
 0.000000e0 0.000000e0 0.000000e0 0.000000e0 -5.162044e-2 9.081527e-3 0.000000e0 0.000000e0
 0.000000e0 0.000000e0 0.000000e0 0.000000e0 7.943650e-2 1.972729e-2 0.000000e0 0.000000e0
 0.000000e0 0.000000e0 0.000000e0 0.000000e0 -5.801084e-1 -7.343460e-1 0.000000e0 0.000000e0
3.200000e9 0.000000e0 0.000000e0 0.000000e0 0.000000e0 1.723201e-2 6.095412e-2 0.000000e0 0.000000e0
 0.000000e0 0.000000e0 0.000000e0 0.000000e0 -5.260092e-2 1.287532e-2 0.000000e0 0.000000e0
 0.000000e0 0.000000e0 0.000000e0 0.000000e0 8.016197e-2 2.025002e-2 0.000000e0 0.000000e0
 0.000000e0 0.000000e0 0.000000e0 0.000000e0 -5.850878e-1 -7.290619e-1 0.000000e0 0.000000e0
3.210000e9 0.000000e0 0.000000e0 0.000000e0 0.000000e0 2.130640e-2 6.173810e-2 0.000000e0 0.000000e0
 0.000000e0 0.000000e0 0.000000e0 0.000000e0 -5.329842e-2 1.665304e-2 0.000000e0 0.000000e0
 0.000000e0 0.000000e0 0.000000e0 0.000000e0 8.129124e-2 2.027458e-2 0.000000e0 0.000000e0
 0.000000e0 0.000000e0 0.000000e0 0.000000e0 -5.905525e-1 -7.233928e-1 0.000000e0 0.000000e0
3.220000e9 0.000000e0 0.000000e0 0.000000e0 0.000000e0 2.545078e-2 6.236964e-2 0.000000e0 0.000000e0
 0.000000e0 0.000000e0 0.000000e0 0.000000e0 -5.389229e-2 2.046513e-2 0.000000e0 0.000000e0
 0.000000e0 0.000000e0 0.000000e0 0.000000e0 8.236101e-2 1.973863e-2 0.000000e0 0.000000e0
 0.000000e0 0.000000e0 0.000000e0 0.000000e0 -5.959578e-1 -7.170631e-1 0.000000e0 0.000000e0
3.230000e9 0.000000e0 0.000000e0 0.000000e0 0.000000e0 2.979495e-2 6.289071e-2 0.000000e0 0.000000e0
 0.000000e0 0.000000e0 0.000000e0 0.000000e0 -5.445477e-2 2.451837e-2 0.000000e0 0.000000e0
 0.000000e0 0.000000e0 0.000000e0 0.000000e0 8.304136e-2 1.895392e-2 0.000000e0 0.000000e0
 0.000000e0 0.000000e0 0.000000e0 0.000000e0 -6.007406e-1 -7.103346e-1 0.000000e0 0.000000e0
3.240000e9 0.000000e0 0.000000e0 0.000000e0 0.000000e0 3.448643e-2 6.322004e-2 0.000000e0 0.000000e0
 0.000000e0 0.000000e0 0.000000e0 0.000000e0 -5.484774e-2 2.905737e-2 0.000000e0 0.000000e0
 0.000000e0 0.000000e0 0.000000e0 0.000000e0 8.338188e-2 1.836361e-2 0.000000e0 0.000000e0
 0.000000e0 0.000000e0 0.000000e0 0.000000e0 -6.047449e-1 -7.038305e-1 0.000000e0 0.000000e0
3.250000e9 0.000000e0 0.000000e0 0.000000e0 0.000000e0 3.960419e-2 6.316502e-2 0.000000e0 0.000000e0
 0.000000e0 0.000000e0 0.000000e0 0.000000e0 -5.473100e-2 3.419430e-2 0.000000e0 0.000000e0
 0.000000e0 0.000000e0 0.000000e0 0.000000e0 8.377807e-2 1.819210e-2 0.000000e0 0.000000e0
 0.000000e0 0.000000e0 0.000000e0 0.000000e0 -6.083602e-1 -6.980925e-1 0.000000e0 0.000000e0
3.260000e9 0.000000e0 0.000000e0 0.000000e0 0.000000e0 4.510131e-2 6.248265e-2 0.000000e0 0.000000e0
 0.000000e0 0.000000e0 0.000000e0 0.000000e0 -5.369266e-2 3.978067e-2 0.000000e0 0.000000e0
 0.000000e0 0.000000e0 0.000000e0 0.000000e0 8.467341e-2 1.824579e-2 0.000000e0 0.000000e0
 0.000000e0 0.000000e0 0.000000e0 0.000000e0 -6.122680e-1 -6.931870e-1 0.000000e0 0.000000e0
3.270000e9 0.000000e0 0.000000e0 0.000000e0 0.000000e0 5.079479e-2 6.095652e-2 0.000000e0 0.000000e0
 0.000000e0 0.000000e0 0.000000e0 0.000000e0 -5.144241e-2 4.539695e-2 0.000000e0 0.000000e0
 0.000000e0 0.000000e0 0.000000e0 0.000000e0 8.620965e-2 1.801837e-2 0.000000e0 0.000000e0
 0.000000e0 0.000000e0 0.000000e0 0.000000e0 -6.169727e-1 -6.886486e-1 0.000000e0 0.000000e0
3.280000e9 0.000000e0 0.000000e0 0.000000e0 0.000000e0 5.639323e-2 5.846034e-2 0.000000e0 0.000000e0
 0.000000e0 0.000000e0 0.000000e0 0.000000e0 -4.797157e-2 5.047450e-2 0.000000e0 0.000000e0
 0.000000e0 0.000000e0 0.000000e0 0.000000e0 8.808159e-2 1.703295e-2 0.000000e0 0.000000e0
 0.000000e0 0.000000e0 0.000000e0 0.000000e0 -6.224563e-1 -6.838077e-1 0.000000e0 0.000000e0
3.290000e9 0.000000e0 0.000000e0 0.000000e0 0.000000e0 6.154143e-2 5.499972e-2 0.000000e0 0.000000e0
 0.000000e0 0.000000e0 0.000000e0 0.000000e0 -4.360067e-2 5.449431e-2 0.000000e0 0.000000e0
 0.000000e0 0.000000e0 0.000000e0 0.000000e0 8.970902e-2 1.517744e-2 0.000000e0 0.000000e0
 0.000000e0 0.000000e0 0.000000e0 0.000000e0 -6.282135e-1 -6.782703e-1 0.000000e0 0.000000e0
3.300000e9 0.000000e0 0.000000e0 0.000000e0 0.000000e0 6.587208e-2 5.074087e-2 0.000000e0 0.000000e0
 0.000000e0 0.000000e0 0.000000e0 0.000000e0 -3.889469e-2 5.717080e-2 0.000000e0 0.000000e0
 0.000000e0 0.000000e0 0.000000e0 0.000000e0 9.060719e-2 1.278819e-2 0.000000e0 0.000000e0
 0.000000e0 0.000000e0 0.000000e0 0.000000e0 -6.336503e-1 -6.721972e-1 0.000000e0 0.000000e0
3.310000e9 0.000000e0 0.000000e0 0.000000e0 0.000000e0 6.907359e-2 4.603178e-2 0.000000e0 0.000000e0
 0.000000e0 0.000000e0 0.000000e0 0.000000e0 -3.449222e-2 5.854317e-2 0.000000e0 0.000000e0
 0.000000e0 0.000000e0 0.000000e0 0.000000e0 9.068768e-2 1.041761e-2 0.000000e0 0.000000e0
 0.000000e0 0.000000e0 0.000000e0 0.000000e0 -6.385622e-1 -6.661688e-1 0.000000e0 0.000000e0
3.320000e9 0.000000e0 0.000000e0 0.000000e0 0.000000e0 7.098784e-2 4.139893e-2 0.000000e0 0.000000e0
 0.000000e0 0.000000e0 0.000000e0 0.000000e0 -3.092865e-2 5.895227e-2 0.000000e0 0.000000e0
 0.000000e0 0.000000e0 0.000000e0 0.000000e0 9.026816e-2 8.455870e-3 0.000000e0 0.000000e0
 0.000000e0 0.000000e0 0.000000e0 0.000000e0 -6.433364e-1 -6.607151e-1 0.000000e0 0.000000e0
3.330000e9 0.000000e0 0.000000e0 0.000000e0 0.000000e0 7.172911e-2 3.748274e-2 0.000000e0 0.000000e0
 0.000000e0 0.000000e0 0.000000e0 0.000000e0 -2.851780e-2 5.893813e-2 0.000000e0 0.000000e0
 0.000000e0 0.000000e0 0.000000e0 0.000000e0 8.978385e-2 6.889214e-3 0.000000e0 0.000000e0
 0.000000e0 0.000000e0 0.000000e0 0.000000e0 -6.487088e-1 -6.558461e-1 0.000000e0 0.000000e0
3.340000e9 0.000000e0 0.000000e0 0.000000e0 0.000000e0 7.177566e-2 3.488243e-2 0.000000e0 0.000000e0
 0.000000e0 0.000000e0 0.000000e0 0.000000e0 -2.730863e-2 5.911718e-2 0.000000e0 0.000000e0
 0.000000e0 0.000000e0 0.000000e0 0.000000e0 8.941993e-2 5.380075e-3 0.000000e0 0.000000e0
 0.000000e0 0.000000e0 0.000000e0 0.000000e0 -6.552282e-1 -6.509307e-1 0.000000e0 0.000000e0
3.350000e9 0.000000e0 0.000000e0 0.000000e0 0.000000e0 7.195855e-2 3.392686e-2 0.000000e0 0.000000e0
 0.000000e0 0.000000e0 0.000000e0 0.000000e0 -2.709137e-2 6.007830e-2 0.000000e0 0.000000e0
 0.000000e0 0.000000e0 0.000000e0 0.000000e0 8.895100e-2 3.612882e-3 0.000000e0 0.000000e0
 0.000000e0 0.000000e0 0.000000e0 0.000000e0 -6.627959e-1 -6.450388e-1 0.000000e0 0.000000e0
3.360000e9 0.000000e0 0.000000e0 0.000000e0 0.000000e0 7.329044e-2 3.445184e-2 0.000000e0 0.000000e0
 0.000000e0 0.000000e0 0.000000e0 0.000000e0 -2.742107e-2 6.229798e-2 0.000000e0 0.000000e0
 0.000000e0 0.000000e0 0.000000e0 0.000000e0 8.792674e-2 1.641074e-3 0.000000e0 0.000000e0
 0.000000e0 0.000000e0 0.000000e0 0.000000e0 -6.706180e-1 -6.375358e-1 0.000000e0 0.000000e0
3.370000e9 0.000000e0 0.000000e0 0.000000e0 0.000000e0 7.664773e-2 3.570457e-2 0.000000e0 0.000000e0
 0.000000e0 0.000000e0 0.000000e0 0.000000e0 -2.765416e-2 6.605271e-2 0.000000e0 0.000000e0
 0.000000e0 0.000000e0 0.000000e0 0.000000e0 8.608059e-2 -4.714348e-5 0.000000e0 0.000000e0
 0.000000e0 0.000000e0 0.000000e0 0.000000e0 -6.776310e-1 -6.285290e-1 0.000000e0 0.000000e0
3.380000e9 0.000000e0 0.000000e0 0.000000e0 0.000000e0 8.241345e-2 3.647081e-2 0.000000e0 0.000000e0
 0.000000e0 0.000000e0 0.000000e0 0.000000e0 -2.702460e-2 7.132225e-2 0.000000e0 0.000000e0
 0.000000e0 0.000000e0 0.000000e0 0.000000e0 8.365359e-2 -8.290807e-4 0.000000e0 0.000000e0
 0.000000e0 0.000000e0 0.000000e0 0.000000e0 -6.831325e-1 -6.188504e-1 0.000000e0 0.000000e0
3.390000e9 0.000000e0 0.000000e0 0.000000e0 0.000000e0 9.024464e-2 3.542444e-2 0.000000e0 0.000000e0
 0.000000e0 0.000000e0 0.000000e0 0.000000e0 -2.478781e-2 7.771721e-2 0.000000e0 0.000000e0
 0.000000e0 0.000000e0 0.000000e0 0.000000e0 8.136288e-2 -4.203231e-4 0.000000e0 0.000000e0
 0.000000e0 0.000000e0 0.000000e0 0.000000e0 -6.871974e-1 -6.095754e-1 0.000000e0 0.000000e0
3.400000e9 0.000000e0 0.000000e0 0.000000e0 0.000000e0 9.909894e-2 3.157821e-2 0.000000e0 0.000000e0
 0.000000e0 0.000000e0 0.000000e0 0.000000e0 -2.042088e-2 8.449151e-2 0.000000e0 0.000000e0
 0.000000e0 0.000000e0 0.000000e0 0.000000e0 7.999253e-2 8.253000e-4 0.000000e0 0.000000e0
 0.000000e0 0.000000e0 0.000000e0 0.000000e0 -6.906032e-1 -6.013922e-1 0.000000e0 0.000000e0
3.410000e9 0.000000e0 0.000000e0 0.000000e0 0.000000e0 1.075422e-1 2.464293e-2 0.000000e0 0.000000e0
 0.000000e0 0.000000e0 0.000000e0 0.000000e0 -1.381304e-2 9.068418e-2 0.000000e0 0.000000e0
 0.000000e0 0.000000e0 0.000000e0 0.000000e0 7.986786e-2 2.034842e-3 0.000000e0 0.000000e0
 0.000000e0 0.000000e0 0.000000e0 0.000000e0 -6.943233e-1 -5.942416e-1 0.000000e0 0.000000e0
3.420000e9 0.000000e0 0.000000e0 0.000000e0 0.000000e0 1.142208e-1 1.512813e-2 0.000000e0 0.000000e0
 0.000000e0 0.000000e0 0.000000e0 0.000000e0 -5.350852e-3 9.537434e-2 0.000000e0 0.000000e0
 0.000000e0 0.000000e0 0.000000e0 0.000000e0 8.058152e-2 2.312387e-3 0.000000e0 0.000000e0
 0.000000e0 0.000000e0 0.000000e0 0.000000e0 -6.989395e-1 -5.874493e-1 0.000000e0 0.000000e0
3.430000e9 0.000000e0 0.000000e0 0.000000e0 0.000000e0 1.182968e-1 4.133222e-3 0.000000e0 0.000000e0
 0.000000e0 0.000000e0 0.000000e0 0.000000e0 4.170423e-3 9.796057e-2 0.000000e0 0.000000e0
 0.000000e0 0.000000e0 0.000000e0 0.000000e0 8.118558e-2 1.295641e-3 0.000000e0 0.000000e0
 0.000000e0 0.000000e0 0.000000e0 0.000000e0 -7.043665e-1 -5.802326e-1 0.000000e0 0.000000e0
3.440000e9 0.000000e0 0.000000e0 0.000000e0 0.000000e0 1.196554e-1 -7.074844e-3 0.000000e0 0.000000e0
 0.000000e0 0.000000e0 0.000000e0 0.000000e0 1.379943e-2 9.833905e-2 0.000000e0 0.000000e0
 0.000000e0 0.000000e0 0.000000e0 0.000000e0 8.074771e-2 -6.069835e-4 0.000000e0 0.000000e0
 0.000000e0 0.000000e0 0.000000e0 0.000000e0 -7.100504e-1 -5.722143e-1 0.000000e0 0.000000e0
3.450000e9 0.000000e0 0.000000e0 0.000000e0 0.000000e0 1.188067e-1 -1.749906e-2 0.000000e0 0.000000e0
 0.000000e0 0.000000e0 0.000000e0 0.000000e0 2.274407e-2 9.688594e-2 0.000000e0 0.000000e0
 0.000000e0 0.000000e0 0.000000e0 0.000000e0 7.890781e-2 -2.476142e-3 0.000000e0 0.000000e0
 0.000000e0 0.000000e0 0.000000e0 0.000000e0 -7.154691e-1 -5.635844e-1 0.000000e0 0.000000e0
3.460000e9 0.000000e0 0.000000e0 0.000000e0 0.000000e0 1.165562e-1 -2.666599e-2 0.000000e0 0.000000e0
 0.000000e0 0.000000e0 0.000000e0 0.000000e0 3.060099e-2 9.424464e-2 0.000000e0 0.000000e0
 0.000000e0 0.000000e0 0.000000e0 0.000000e0 7.605279e-2 -3.475299e-3 0.000000e0 0.000000e0
 0.000000e0 0.000000e0 0.000000e0 0.000000e0 -7.205528e-1 -5.548189e-1 0.000000e0 0.000000e0
3.470000e9 0.000000e0 0.000000e0 0.000000e0 0.000000e0 1.136300e-1 -3.460305e-2 0.000000e0 0.000000e0
 0.000000e0 0.000000e0 0.000000e0 0.000000e0 3.738749e-2 9.102638e-2 0.000000e0 0.000000e0
 0.000000e0 0.000000e0 0.000000e0 0.000000e0 7.298040e-2 -3.372963e-3 0.000000e0 0.000000e0
 0.000000e0 0.000000e0 0.000000e0 0.000000e0 -7.257150e-1 -5.461840e-1 0.000000e0 0.000000e0
3.480000e9 0.000000e0 0.000000e0 0.000000e0 0.000000e0 1.104487e-1 -4.160177e-2 0.000000e0 0.000000e0
 0.000000e0 0.000000e0 0.000000e0 0.000000e0 4.337256e-2 8.758411e-2 0.000000e0 0.000000e0
 0.000000e0 0.000000e0 0.000000e0 0.000000e0 7.028039e-2 -2.623908e-3 0.000000e0 0.000000e0
 0.000000e0 0.000000e0 0.000000e0 0.000000e0 -7.314781e-1 -5.374126e-1 0.000000e0 0.000000e0
3.490000e9 0.000000e0 0.000000e0 0.000000e0 0.000000e0 1.071334e-1 -4.793924e-2 0.000000e0 0.000000e0
 0.000000e0 0.000000e0 0.000000e0 0.000000e0 4.882007e-2 8.397548e-2 0.000000e0 0.000000e0
 0.000000e0 0.000000e0 0.000000e0 0.000000e0 6.786994e-2 -1.941216e-3 0.000000e0 0.000000e0
 0.000000e0 0.000000e0 0.000000e0 0.000000e0 -7.379809e-1 -5.278042e-1 0.000000e0 0.000000e0
3.500000e9 0.000000e0 0.000000e0 0.000000e0 0.000000e0 1.036844e-1 -5.372910e-2 0.000000e0 0.000000e0
 0.000000e0 0.000000e0 0.000000e0 0.000000e0 5.380591e-2 8.011367e-2 0.000000e0 0.000000e0
 0.000000e0 0.000000e0 0.000000e0 0.000000e0 6.502546e-2 -1.650923e-3 0.000000e0 0.000000e0
 0.000000e0 0.000000e0 0.000000e0 0.000000e0 -7.447461e-1 -5.166836e-1 0.000000e0 0.000000e0
3.510000e9 0.000000e0 0.000000e0 0.000000e0 0.000000e0 1.001721e-1 -5.896777e-2 0.000000e0 0.000000e0
 0.000000e0 0.000000e0 0.000000e0 0.000000e0 5.821821e-2 7.598731e-2 0.000000e0 0.000000e0
 0.000000e0 0.000000e0 0.000000e0 0.000000e0 6.091372e-2 -1.286862e-3 0.000000e0 0.000000e0
 0.000000e0 0.000000e0 0.000000e0 0.000000e0 -7.508932e-1 -5.038834e-1 0.000000e0 0.000000e0
3.520000e9 0.000000e0 0.000000e0 0.000000e0 0.000000e0 9.679215e-2 -6.370263e-2 0.000000e0 0.000000e0
 0.000000e0 0.000000e0 0.000000e0 0.000000e0 6.192683e-2 7.178911e-2 0.000000e0 0.000000e0
 0.000000e0 0.000000e0 0.000000e0 0.000000e0 5.527206e-2 2.661037e-4 0.000000e0 0.000000e0
 0.000000e0 0.000000e0 0.000000e0 0.000000e0 -7.556570e-1 -4.898920e-1 0.000000e0 0.000000e0
3.530000e9 0.000000e0 0.000000e0 0.000000e0 0.000000e0 9.374903e-2 -6.816752e-2 0.000000e0 0.000000e0
 0.000000e0 0.000000e0 0.000000e0 0.000000e0 6.499211e-2 6.785565e-2 0.000000e0 0.000000e0
 0.000000e0 0.000000e0 0.000000e0 0.000000e0 4.876632e-2 4.142812e-3 0.000000e0 0.000000e0
 0.000000e0 0.000000e0 0.000000e0 0.000000e0 -7.588397e-1 -4.755498e-1 0.000000e0 0.000000e0
3.540000e9 0.000000e0 0.000000e0 0.000000e0 0.000000e0 9.106011e-2 -7.275939e-2 0.000000e0 0.000000e0
 0.000000e0 0.000000e0 0.000000e0 0.000000e0 6.775135e-2 6.445231e-2 0.000000e0 0.000000e0
 0.000000e0 0.000000e0 0.000000e0 0.000000e0 4.275768e-2 1.078525e-2 0.000000e0 0.000000e0
 0.000000e0 0.000000e0 0.000000e0 0.000000e0 -7.608709e-1 -4.615078e-1 0.000000e0 0.000000e0
3.550000e9 0.000000e0 0.000000e0 0.000000e0 0.000000e0 8.844008e-2 -7.784811e-2 0.000000e0 0.000000e0
 0.000000e0 0.000000e0 0.000000e0 0.000000e0 7.069989e-2 6.155067e-2 0.000000e0 0.000000e0
 0.000000e0 0.000000e0 0.000000e0 0.000000e0 3.860480e-2 1.962029e-2 0.000000e0 0.000000e0
 0.000000e0 0.000000e0 0.000000e0 0.000000e0 -7.624358e-1 -4.478375e-1 0.000000e0 0.000000e0
3.560000e9 0.000000e0 0.000000e0 0.000000e0 0.000000e0 8.537530e-2 -8.353862e-2 0.000000e0 0.000000e0
 0.000000e0 0.000000e0 0.000000e0 0.000000e0 7.422422e-2 5.876316e-2 0.000000e0 0.000000e0
 0.000000e0 0.000000e0 0.000000e0 0.000000e0 3.694153e-2 2.934855e-2 0.000000e0 0.000000e0
 0.000000e0 0.000000e0 0.000000e0 0.000000e0 -7.639499e-1 -4.340685e-1 0.000000e0 0.000000e0
3.570000e9 0.000000e0 0.000000e0 0.000000e0 0.000000e0 8.136930e-2 -8.955138e-2 0.000000e0 0.000000e0
 0.000000e0 0.000000e0 0.000000e0 0.000000e0 7.835378e-2 5.550406e-2 0.000000e0 0.000000e0
 0.000000e0 0.000000e0 0.000000e0 0.000000e0 3.738632e-2 3.866377e-2 0.000000e0 0.000000e0
 0.000000e0 0.000000e0 0.000000e0 0.000000e0 -7.652669e-1 -4.196075e-1 0.000000e0 0.000000e0
3.580000e9 0.000000e0 0.000000e0 0.000000e0 0.000000e0 7.621854e-2 -9.532045e-2 0.000000e0 0.000000e0
 0.000000e0 0.000000e0 0.000000e0 0.000000e0 8.270028e-2 5.129750e-2 0.000000e0 0.000000e0
 0.000000e0 0.000000e0 0.000000e0 0.000000e0 3.885180e-2 4.694898e-2 0.000000e0 0.000000e0
 0.000000e0 0.000000e0 0.000000e0 0.000000e0 -7.658235e-1 -4.042111e-1 0.000000e0 0.000000e0
3.590000e9 0.000000e0 0.000000e0 0.000000e0 0.000000e0 7.014460e-2 -1.002707e-1 0.000000e0 0.000000e0
 0.000000e0 0.000000e0 0.000000e0 0.000000e0 8.664237e-2 4.604851e-2 0.000000e0 0.000000e0
 0.000000e0 0.000000e0 0.000000e0 0.000000e0 4.023549e-2 5.453034e-2 0.000000e0 0.000000e0
 0.000000e0 0.000000e0 0.000000e0 0.000000e0 -7.650917e-1 -3.881490e-1 0.000000e0 0.000000e0
3.600000e9 0.000000e0 0.000000e0 0.000000e0 0.000000e0 6.369041e-2 -1.041169e-1 0.000000e0 0.000000e0
 0.000000e0 0.000000e0 0.000000e0 0.000000e0 8.965815e-2 4.010431e-2 0.000000e0 0.000000e0
 0.000000e0 0.000000e0 0.000000e0 0.000000e0 4.104911e-2 6.237450e-2 0.000000e0 0.000000e0
 0.000000e0 0.000000e0 0.000000e0 0.000000e0 -7.629694e-1 -3.719371e-1 0.000000e0 0.000000e0
3.610000e9 0.000000e0 0.000000e0 0.000000e0 0.000000e0 5.743184e-2 -1.070072e-1 0.000000e0 0.000000e0
 0.000000e0 0.000000e0 0.000000e0 0.000000e0 9.160801e-2 3.405696e-2 0.000000e0 0.000000e0
 0.000000e0 0.000000e0 0.000000e0 0.000000e0 4.162234e-2 7.147183e-2 0.000000e0 0.000000e0
 0.000000e0 0.000000e0 0.000000e0 0.000000e0 -7.597896e-1 -3.558597e-1 0.000000e0 0.000000e0
3.620000e9 0.000000e0 0.000000e0 0.000000e0 0.000000e0 5.167044e-2 -1.094221e-1 0.000000e0 0.000000e0
 0.000000e0 0.000000e0 0.000000e0 0.000000e0 9.279231e-2 2.839913e-2 0.000000e0 0.000000e0
 0.000000e0 0.000000e0 0.000000e0 0.000000e0 4.282333e-2 8.231556e-2 0.000000e0 0.000000e0
 0.000000e0 0.000000e0 0.000000e0 0.000000e0 -7.559179e-1 -3.396728e-1 0.000000e0 0.000000e0
3.630000e9 0.000000e0 0.000000e0 0.000000e0 0.000000e0 4.628653e-2 -1.118888e-1 0.000000e0 0.000000e0
 0.000000e0 0.000000e0 0.000000e0 0.000000e0 9.374292e-2 2.324116e-2 0.000000e0 0.000000e0
 0.000000e0 0.000000e0 0.000000e0 0.000000e0 4.555025e-2 9.477152e-2 0.000000e0 0.000000e0
 0.000000e0 0.000000e0 0.000000e0 0.000000e0 -7.512442e-1 -3.227625e-1 0.000000e0 0.000000e0
3.640000e9 0.000000e0 0.000000e0 0.000000e0 0.000000e0 4.083474e-2 -1.146811e-1 0.000000e0 0.000000e0
 0.000000e0 0.000000e0 0.000000e0 0.000000e0 9.487372e-2 1.826563e-2 0.000000e0 0.000000e0
 0.000000e0 0.000000e0 0.000000e0 0.000000e0 5.035730e-2 1.083366e-1 0.000000e0 0.000000e0
 0.000000e0 0.000000e0 0.000000e0 0.000000e0 -7.449789e-1 -3.046838e-1 0.000000e0 0.000000e0
3.650000e9 0.000000e0 0.000000e0 0.000000e0 0.000000e0 3.481560e-2 -1.176792e-1 0.000000e0 0.000000e0
 0.000000e0 0.000000e0 0.000000e0 0.000000e0 9.620746e-2 1.294964e-2 0.000000e0 0.000000e0
 0.000000e0 0.000000e0 0.000000e0 0.000000e0 5.742882e-2 1.225250e-1 0.000000e0 0.000000e0
 0.000000e0 0.000000e0 0.000000e0 0.000000e0 -7.359651e-1 -2.856967e-1 0.000000e0 0.000000e0
3.660000e9 0.000000e0 0.000000e0 0.000000e0 0.000000e0 2.795261e-2 -1.204612e-1 0.000000e0 0.000000e0
 0.000000e0 0.000000e0 0.000000e0 0.000000e0 9.735065e-2 6.913845e-3 0.000000e0 0.000000e0
 0.000000e0 0.000000e0 0.000000e0 0.000000e0 6.683652e-2 1.370769e-1 0.000000e0 0.000000e0
 0.000000e0 0.000000e0 0.000000e0 0.000000e0 -7.233236e-1 -2.668808e-1 0.000000e0 0.000000e0
3.670000e9 0.000000e0 0.000000e0 0.000000e0 0.000000e0 2.031086e-2 -1.225500e-1 0.000000e0 0.000000e0
 0.000000e0 0.000000e0 0.000000e0 0.000000e0 9.772877e-2 1.757916e-4 0.000000e0 0.000000e0
 0.000000e0 0.000000e0 0.000000e0 0.000000e0 7.882053e-2 1.518654e-1 0.000000e0 0.000000e0
 0.000000e0 0.000000e0 0.000000e0 0.000000e0 -7.069790e-1 -2.497068e-1 0.000000e0 0.000000e0
3.680000e9 0.000000e0 0.000000e0 0.000000e0 0.000000e0 1.220546e-2 -1.236492e-1 0.000000e0 0.000000e0
 0.000000e0 0.000000e0 0.000000e0 0.000000e0 9.692535e-2 -6.850581e-3 0.000000e0 0.000000e0
 0.000000e0 0.000000e0 0.000000e0 0.000000e0 9.386037e-2 1.666239e-1 0.000000e0 0.000000e0
 0.000000e0 0.000000e0 0.000000e0 0.000000e0 -6.876739e-1 -2.353487e-1 0.000000e0 0.000000e0
3.690000e9 0.000000e0 0.000000e0 0.000000e0 0.000000e0 3.984925e-3 -1.237249e-1 0.000000e0 0.000000e0
 0.000000e0 0.000000e0 0.000000e0 0.000000e0 9.490486e-2 -1.360031e-2 0.000000e0 0.000000e0
 0.000000e0 0.000000e0 0.000000e0 0.000000e0 1.124999e-1 1.807308e-1 0.000000e0 0.000000e0
 0.000000e0 0.000000e0 0.000000e0 0.000000e0 -6.664477e-1 -2.242356e-1 0.000000e0 0.000000e0
3.700000e9 0.000000e0 0.000000e0 0.000000e0 0.000000e0 -4.154450e-3 -1.229024e-1 0.000000e0 0.000000e0
 0.000000e0 0.000000e0 0.000000e0 0.000000e0 9.197779e-2 -1.968002e-2 0.000000e0 0.000000e0
 0.000000e0 0.000000e0 0.000000e0 0.000000e0 1.350825e-1 1.932040e-1 0.000000e0 0.000000e0
 0.000000e0 0.000000e0 0.000000e0 0.000000e0 -6.439588e-1 -2.161873e-1 0.000000e0 0.000000e0
3.710000e9 0.000000e0 0.000000e0 0.000000e0 0.000000e0 -1.220064e-2 -1.212695e-1 0.000000e0 0.000000e0
 0.000000e0 0.000000e0 0.000000e0 0.000000e0 8.853568e-2 -2.504954e-2 0.000000e0 0.000000e0
 0.000000e0 0.000000e0 0.000000e0 0.000000e0 1.615891e-1 2.028617e-1 0.000000e0 0.000000e0
 0.000000e0 0.000000e0 0.000000e0 0.000000e0 -6.201778e-1 -2.110586e-1 0.000000e0 0.000000e0
3.720000e9 0.000000e0 0.000000e0 0.000000e0 0.000000e0 -2.019172e-2 -1.187340e-1 0.000000e0 0.000000e0
 0.000000e0 0.000000e0 0.000000e0 0.000000e0 8.473794e-2 -2.993308e-2 0.000000e0 0.000000e0
 0.000000e0 0.000000e0 0.000000e0 0.000000e0 1.916330e-1 2.084827e-1 0.000000e0 0.000000e0
 0.000000e0 0.000000e0 0.000000e0 0.000000e0 -5.947463e-1 -2.094204e-1 0.000000e0 0.000000e0
3.730000e9 0.000000e0 0.000000e0 0.000000e0 0.000000e0 -2.801534e-2 -1.150423e-1 0.000000e0 0.000000e0
 0.000000e0 0.000000e0 0.000000e0 0.000000e0 8.037489e-2 -3.450747e-2 0.000000e0 0.000000e0
 0.000000e0 0.000000e0 0.000000e0 0.000000e0 2.244944e-1 2.088454e-1 0.000000e0 0.000000e0
 0.000000e0 0.000000e0 0.000000e0 0.000000e0 -5.678241e-1 -2.127158e-1 0.000000e0 0.000000e0
3.740000e9 0.000000e0 0.000000e0 0.000000e0 0.000000e0 -3.528493e-2 -1.099538e-1 0.000000e0 0.000000e0
 0.000000e0 0.000000e0 0.000000e0 0.000000e0 7.502719e-2 -3.857101e-2 0.000000e0 0.000000e0
 0.000000e0 0.000000e0 0.000000e0 0.000000e0 2.590252e-1 2.027117e-1 0.000000e0 0.000000e0
 0.000000e0 0.000000e0 0.000000e0 0.000000e0 -5.408534e-1 -2.226494e-1 0.000000e0 0.000000e0
3.750000e9 0.000000e0 0.000000e0 0.000000e0 0.000000e0 -4.138354e-2 -1.034663e-1 0.000000e0 0.000000e0
 0.000000e0 0.000000e0 0.000000e0 0.000000e0 6.845433e-2 -4.142604e-2 0.000000e0 0.000000e0
 0.000000e0 0.000000e0 0.000000e0 0.000000e0 2.934038e-1 1.889693e-1 0.000000e0 0.000000e0
 0.000000e0 0.000000e0 0.000000e0 0.000000e0 -5.166553e-1 -2.400838e-1 0.000000e0 0.000000e0
3.760000e9 0.000000e0 0.000000e0 0.000000e0 0.000000e0 -4.566167e-2 -9.595686e-2 0.000000e0 0.000000e0
 0.000000e0 0.000000e0 0.000000e0 0.000000e0 6.099356e-2 -4.209342e-2 0.000000e0 0.000000e0
 0.000000e0 0.000000e0 0.000000e0 0.000000e0 3.249592e-1 1.671064e-1 0.000000e0 0.000000e0
 0.000000e0 0.000000e0 0.000000e0 0.000000e0 -4.986533e-1 -2.640795e-1 0.000000e0 0.000000e0
3.770000e9 0.000000e0 0.000000e0 0.000000e0 0.000000e0 -4.768969e-2 -8.815757e-2 0.000000e0 0.000000e0
 0.000000e0 0.000000e0 0.000000e0 0.000000e0 5.372303e-2 -3.979251e-2 0.000000e0 0.000000e0
 0.000000e0 0.000000e0 0.000000e0 0.000000e0 3.504158e-1 1.379294e-1 0.000000e0 0.000000e0
 0.000000e0 0.000000e0 0.000000e0 0.000000e0 -4.895327e-1 -2.916890e-1 0.000000e0 0.000000e0
3.780000e9 0.000000e0 0.000000e0 0.000000e0 0.000000e0 -4.744063e-2 -8.097093e-2 0.000000e0 0.000000e0
 0.000000e0 0.000000e0 0.000000e0 0.000000e0 4.824295e-2 -3.446289e-2 0.000000e0 0.000000e0
 0.000000e0 0.000000e0 0.000000e0 0.000000e0 3.667761e-1 1.041071e-1 0.000000e0 0.000000e0
 0.000000e0 0.000000e0 0.000000e0 0.000000e0 -4.900079e-1 -3.187485e-1 0.000000e0 0.000000e0
3.790000e9 0.000000e0 0.000000e0 0.000000e0 0.000000e0 -4.531454e-2 -7.521069e-2 0.000000e0 0.000000e0
 0.000000e0 0.000000e0 0.000000e0 0.000000e0 4.611457e-2 -2.704102e-2 0.000000e0 0.000000e0
 0.000000e0 0.000000e0 0.000000e0 0.000000e0 3.726332e-1 6.997141e-2 0.000000e0 0.000000e0
 0.000000e0 0.000000e0 0.000000e0 0.000000e0 -4.983973e-1 -3.413770e-1 0.000000e0 0.000000e0
3.800000e9 0.000000e0 0.000000e0 0.000000e0 0.000000e0 -4.199386e-2 -7.139370e-2 0.000000e0 0.000000e0
 0.000000e0 0.000000e0 0.000000e0 0.000000e0 4.820489e-2 -1.928511e-2 0.000000e0 0.000000e0
 0.000000e0 0.000000e0 0.000000e0 0.000000e0 3.692092e-1 4.028503e-2 0.000000e0 0.000000e0
 0.000000e0 0.000000e0 0.000000e0 0.000000e0 -5.113472e-1 -3.574283e-1 0.000000e0 0.000000e0
3.810000e9 0.000000e0 0.000000e0 0.000000e0 0.000000e0 -3.821262e-2 -6.968611e-2 0.000000e0 0.000000e0
 0.000000e0 0.000000e0 0.000000e0 0.000000e0 5.429608e-2 -1.317789e-2 0.000000e0 0.000000e0
 0.000000e0 0.000000e0 0.000000e0 0.000000e0 3.602811e-1 1.838206e-2 0.000000e0 0.000000e0
 0.000000e0 0.000000e0 0.000000e0 0.000000e0 -5.253764e-1 -3.670475e-1 0.000000e0 0.000000e0
3.820000e9 0.000000e0 0.000000e0 0.000000e0 0.000000e0 -3.457775e-2 -7.001548e-2 0.000000e0 0.000000e0
 0.000000e0 0.000000e0 0.000000e0 0.000000e0 6.320457e-2 -1.021460e-2 0.000000e0 0.000000e0
 0.000000e0 0.000000e0 0.000000e0 0.000000e0 3.507191e-1 4.736564e-3 0.000000e0 0.000000e0
 0.000000e0 0.000000e0 0.000000e0 0.000000e0 -5.383277e-1 -3.719811e-1 0.000000e0 0.000000e0
3.830000e9 0.000000e0 0.000000e0 0.000000e0 0.000000e0 -3.154431e-2 -7.225008e-2 0.000000e0 0.000000e0
 0.000000e0 0.000000e0 0.000000e0 0.000000e0 7.333884e-2 -1.098145e-2 0.000000e0 0.000000e0
 0.000000e0 0.000000e0 0.000000e0 0.000000e0 3.443318e-1 -3.051866e-3 0.000000e0 0.000000e0
 0.000000e0 0.000000e0 0.000000e0 0.000000e0 -5.498344e-1 -3.741218e-1 0.000000e0 0.000000e0
3.840000e9 0.000000e0 0.000000e0 0.000000e0 0.000000e0 -2.953489e-2 -7.630422e-2 0.000000e0 0.000000e0
 0.000000e0 0.000000e0 0.000000e0 0.000000e0 8.334544e-2 -1.523649e-2 0.000000e0 0.000000e0
 0.000000e0 0.000000e0 0.000000e0 0.000000e0 3.422910e-1 -8.732911e-3 0.000000e0 0.000000e0
 0.000000e0 0.000000e0 0.000000e0 0.000000e0 -5.605954e-1 -3.742828e-1 0.000000e0 0.000000e0
3.850000e9 0.000000e0 0.000000e0 0.000000e0 0.000000e0 -2.909118e-2 -8.208767e-2 0.000000e0 0.000000e0
 0.000000e0 0.000000e0 0.000000e0 0.000000e0 9.246936e-2 -2.237711e-2 0.000000e0 0.000000e0
 0.000000e0 0.000000e0 0.000000e0 0.000000e0 3.430914e-1 -1.521963e-2 0.000000e0 0.000000e0
 0.000000e0 0.000000e0 0.000000e0 0.000000e0 -5.710658e-1 -3.719689e-1 0.000000e0 0.000000e0
3.860000e9 0.000000e0 0.000000e0 0.000000e0 0.000000e0 -3.092509e-2 -8.932770e-2 0.000000e0 0.000000e0
 0.000000e0 0.000000e0 0.000000e0 0.000000e0 1.004693e-1 -3.196622e-2 0.000000e0 0.000000e0
 0.000000e0 0.000000e0 0.000000e0 0.000000e0 3.440662e-1 -2.303543e-2 0.000000e0 0.000000e0
 0.000000e0 0.000000e0 0.000000e0 0.000000e0 -5.804876e-1 -3.661971e-1 0.000000e0 0.000000e0
3.870000e9 0.000000e0 0.000000e0 0.000000e0 0.000000e0 -3.579962e-2 -9.737916e-2 0.000000e0 0.000000e0
 0.000000e0 0.000000e0 0.000000e0 0.000000e0 1.072001e-1 -4.399618e-2 0.000000e0 0.000000e0
 0.000000e0 0.000000e0 0.000000e0 0.000000e0 3.435606e-1 -3.033340e-2 0.000000e0 0.000000e0
 0.000000e0 0.000000e0 0.000000e0 0.000000e0 -5.868946e-1 -3.567530e-1 0.000000e0 0.000000e0
3.880000e9 0.000000e0 0.000000e0 0.000000e0 0.000000e0 -4.427358e-2 -1.051551e-1 0.000000e0 0.000000e0
 0.000000e0 0.000000e0 0.000000e0 0.000000e0 1.121528e-1 -5.874462e-2 0.000000e0 0.000000e0
 0.000000e0 0.000000e0 0.000000e0 0.000000e0 3.424197e-1 -3.452686e-2 0.000000e0 0.000000e0
 0.000000e0 0.000000e0 0.000000e0 0.000000e0 -5.880767e-1 -3.450230e-1 0.000000e0 0.000000e0
3.890000e9 0.000000e0 0.000000e0 0.000000e0 0.000000e0 -5.643092e-2 -1.112475e-1 0.000000e0 0.000000e0
 0.000000e0 0.000000e0 0.000000e0 0.000000e0 1.142553e-1 -7.631925e-2 0.000000e0 0.000000e0
 0.000000e0 0.000000e0 0.000000e0 0.000000e0 3.437775e-1 -3.454945e-2 0.000000e0 0.000000e0
 0.000000e0 0.000000e0 0.000000e0 0.000000e0 -5.828690e-1 -3.338409e-1 0.000000e0 0.000000e0
3.900000e9 0.000000e0 0.000000e0 0.000000e0 0.000000e0 -7.172724e-2 -1.141989e-1 0.000000e0 0.000000e0
 0.000000e0 0.000000e0 0.000000e0 0.000000e0 1.120791e-1 -9.617300e-2 0.000000e0 0.000000e0
 0.000000e0 0.000000e0 0.000000e0 0.000000e0 3.511809e-1 -3.226211e-2 0.000000e0 0.000000e0
 0.000000e0 0.000000e0 0.000000e0 0.000000e0 -5.719346e-1 -3.264530e-1 0.000000e0 0.000000e0
3.910000e9 0.000000e0 0.000000e0 0.000000e0 0.000000e0 -8.901086e-2 -1.128111e-1 0.000000e0 0.000000e0
 0.000000e0 0.000000e0 0.000000e0 0.000000e0 1.043510e-1 -1.168806e-1 0.000000e0 0.000000e0
 0.000000e0 0.000000e0 0.000000e0 0.000000e0 3.662187e-1 -3.202529e-2 0.000000e0 0.000000e0
 0.000000e0 0.000000e0 0.000000e0 0.000000e0 -5.575993e-1 -3.252794e-1 0.000000e0 0.000000e0
3.920000e9 0.000000e0 0.000000e0 0.000000e0 0.000000e0 -1.066822e-1 -1.063901e-1 0.000000e0 0.000000e0
 0.000000e0 0.000000e0 0.000000e0 0.000000e0 9.051206e-2 -1.363036e-1 0.000000e0 0.000000e0
 0.000000e0 0.000000e0 0.000000e0 0.000000e0 3.871547e-1 -3.866060e-2 0.000000e0 0.000000e0
 0.000000e0 0.000000e0 0.000000e0 0.000000e0 -5.429663e-1 -3.311906e-1 0.000000e0 0.000000e0
3.930000e9 0.000000e0 0.000000e0 0.000000e0 0.000000e0 -1.229241e-1 -9.489806e-2 0.000000e0 0.000000e0
 0.000000e0 0.000000e0 0.000000e0 0.000000e0 7.107538e-2 -1.520703e-1 0.000000e0 0.000000e0
 0.000000e0 0.000000e0 0.000000e0 0.000000e0 4.093912e-1 -5.502081e-2 0.000000e0 0.000000e0
 0.000000e0 0.000000e0 0.000000e0 0.000000e0 -5.309285e-1 -3.435469e-1 0.000000e0 0.000000e0
3.940000e9 0.000000e0 0.000000e0 0.000000e0 0.000000e0 -1.359736e-1 -7.902042e-2 0.000000e0 0.000000e0
 0.000000e0 0.000000e0 0.000000e0 0.000000e0 4.764924e-2 -1.621870e-1 0.000000e0 0.000000e0
 0.000000e0 0.000000e0 0.000000e0 0.000000e0 4.274819e-1 -8.054834e-2 0.000000e0 0.000000e0
 0.000000e0 0.000000e0 0.000000e0 0.000000e0 -5.235803e-1 -3.607338e-1 0.000000e0 0.000000e0
3.950000e9 0.000000e0 0.000000e0 0.000000e0 0.000000e0 -1.444318e-1 -6.013077e-2 0.000000e0 0.000000e0
 0.000000e0 0.000000e0 0.000000e0 0.000000e0 2.261478e-2 -1.655734e-1 0.000000e0 0.000000e0
 0.000000e0 0.000000e0 0.000000e0 0.000000e0 4.375752e-1 -1.116019e-1 0.000000e0 0.000000e0
 0.000000e0 0.000000e0 0.000000e0 0.000000e0 -5.221208e-1 -3.807362e-1 0.000000e0 0.000000e0
3.960000e9 0.000000e0 0.000000e0 0.000000e0 0.000000e0 -1.475771e-1 -4.009966e-2 0.000000e0 0.000000e0
 0.000000e0 0.000000e0 0.000000e0 0.000000e0 -1.449433e-3 -1.623397e-1 0.000000e0 0.000000e0
 0.000000e0 0.000000e0 0.000000e0 0.000000e0 4.389387e-1 -1.433557e-1 0.000000e0 0.000000e0
 0.000000e0 0.000000e0 0.000000e0 0.000000e0 -5.270114e-1 -4.014594e-1 0.000000e0 0.000000e0
3.970000e9 0.000000e0 0.000000e0 0.000000e0 0.000000e0 -1.455698e-1 -2.092284e-2 0.000000e0 0.000000e0
 0.000000e0 0.000000e0 0.000000e0 0.000000e0 -2.240293e-2 -1.536921e-1 0.000000e0 0.000000e0
 0.000000e0 0.000000e0 0.000000e0 0.000000e0 4.337121e-1 -1.721618e-1 0.000000e0 0.000000e0
 0.000000e0 0.000000e0 0.000000e0 0.000000e0 -5.380761e-1 -4.208216e-1 0.000000e0 0.000000e0
3.980000e9 0.000000e0 0.000000e0 0.000000e0 0.000000e0 -1.394174e-1 -4.252523e-3 0.000000e0 0.000000e0
 0.000000e0 0.000000e0 0.000000e0 0.000000e0 -3.899819e-2 -1.415010e-1 0.000000e0 0.000000e0
 0.000000e0 0.000000e0 0.000000e0 0.000000e0 4.251121e-1 -1.969408e-1 0.000000e0 0.000000e0
 0.000000e0 0.000000e0 0.000000e0 0.000000e0 -5.544334e-1 -4.368584e-1 0.000000e0 0.000000e0
3.990000e9 0.000000e0 0.000000e0 0.000000e0 0.000000e0 -1.306626e-1 8.986528e-3 0.000000e0 0.000000e0
 0.000000e0 0.000000e0 0.000000e0 0.000000e0 -5.098875e-2 -1.277236e-1 0.000000e0 0.000000e0
 0.000000e0 0.000000e0 0.000000e0 0.000000e0 4.153364e-1 -2.188059e-1 0.000000e0 0.000000e0
 0.000000e0 0.000000e0 0.000000e0 0.000000e0 -5.744244e-1 -4.480427e-1 0.000000e0 0.000000e0
4.000000e9 0.000000e0 0.000000e0 0.000000e0 0.000000e0 -1.209019e-1 1.872435e-2 0.000000e0 0.000000e0
 0.000000e0 0.000000e0 0.000000e0 0.000000e0 -5.890400e-2 -1.139307e-1 0.000000e0 0.000000e0
 0.000000e0 0.000000e0 0.000000e0 0.000000e0 4.045811e-1 -2.393569e-1 0.000000e0 0.000000e0
 0.000000e0 0.000000e0 0.000000e0 0.000000e0 -5.958210e-1 -4.537563e-1 0.000000e0 0.000000e0
