! agentee lna-cascade
! ports IN OUT
# Hz S RI R 50
5.000000e7 3.345063e-1 -2.468979e-1 -2.108989e1 5.021586e0 2.022371e-2 8.185433e-3 5.923281e-2 1.580520e-2
6.000000e7 3.103325e-1 -2.506769e-1 -2.065334e1 5.748715e0 2.292472e-2 8.787116e-3 4.476556e-2 2.887917e-2
7.000000e7 2.970734e-1 -2.464875e-1 -2.012502e1 6.482632e0 2.317305e-2 7.062627e-3 4.365776e-2 4.306240e-2
8.000000e7 2.852005e-1 -2.441119e-1 -1.959542e1 7.221263e0 2.276557e-2 5.947394e-3 4.221849e-2 5.361176e-2
9.000000e7 2.717589e-1 -2.465788e-1 -1.907257e1 7.942175e0 2.267885e-2 5.972076e-3 3.851739e-2 6.021417e-2
1.000000e8 2.621489e-1 -2.509781e-1 -1.848807e1 8.603198e0 2.289090e-2 5.358729e-3 4.275014e-2 6.516287e-2
1.100000e8 2.522705e-1 -2.540881e-1 -1.791098e1 9.286190e0 2.353526e-2 6.099563e-3 4.519470e-2 6.787334e-2
1.200000e8 2.410073e-1 -2.567576e-1 -1.732402e1 9.946668e0 2.340050e-2 5.793058e-3 4.742948e-2 7.241937e-2
1.300000e8 2.297021e-1 -2.613583e-1 -1.672891e1 1.058069e1 2.376883e-2 5.534304e-3 5.112000e-2 7.507440e-2
1.400000e8 2.179597e-1 -2.667733e-1 -1.610025e1 1.117902e1 2.467786e-2 5.426074e-3 5.569229e-2 7.532435e-2
1.500000e8 2.042775e-1 -2.689713e-1 -1.538814e1 1.172415e1 2.484921e-2 4.690906e-3 5.866595e-2 7.592435e-2
1.600000e8 1.952591e-1 -2.718610e-1 -1.470519e1 1.221927e1 2.500560e-2 4.801729e-3 6.335034e-2 7.547326e-2
1.700000e8 1.853932e-1 -2.750360e-1 -1.399484e1 1.268068e1 2.546741e-2 4.572403e-3 6.731554e-2 7.471485e-2
1.800000e8 1.748616e-1 -2.779496e-1 -1.328468e1 1.309142e1 2.578744e-2 4.768117e-3 7.139054e-2 7.250793e-2
1.900000e8 1.639130e-1 -2.801478e-1 -1.257844e1 1.345837e1 2.587093e-2 5.302622e-3 7.560003e-2 6.935168e-2
2.000000e8 1.532460e-1 -2.812535e-1 -1.185487e1 1.380990e1 2.590381e-2 5.213113e-3 7.941444e-2 6.737822e-2
2.100000e8 1.423184e-1 -2.831349e-1 -1.113707e1 1.408907e1 2.633383e-2 5.279815e-3 8.401439e-2 6.452797e-2
2.200000e8 1.324112e-1 -2.841944e-1 -1.041607e1 1.434374e1 2.653613e-2 5.512364e-3 8.758588e-2 6.090447e-2
2.300000e8 1.226373e-1 -2.846163e-1 -9.696897e0 1.456234e1 2.686362e-2 5.758640e-3 9.157927e-2 5.678006e-2
2.400000e8 1.125247e-1 -2.845760e-1 -8.986678e0 1.473928e1 2.733733e-2 5.829803e-3 9.578052e-2 5.228128e-2
2.500000e8 1.019625e-1 -2.843634e-1 -8.294413e0 1.487452e1 2.764469e-2 5.528451e-3 9.827561e-2 4.759912e-2
2.600000e8 9.291365e-2 -2.834745e-1 -7.601604e0 1.499159e1 2.745002e-2 5.234285e-3 1.013099e-1 4.180606e-2
2.700000e8 8.341585e-2 -2.826051e-1 -6.919243e0 1.507568e1 2.778786e-2 5.224101e-3 1.043459e-1 3.592142e-2
2.800000e8 7.412185e-2 -2.815180e-1 -6.243045e0 1.511779e1 2.813214e-2 5.152677e-3 1.068937e-1 3.027526e-2
2.900000e8 6.524475e-2 -2.802305e-1 -5.583614e0 1.512207e1 2.829425e-2 4.977171e-3 1.090081e-1 2.450902e-2
3.000000e8 5.656152e-2 -2.788506e-1 -4.965050e0 1.510699e1 2.844620e-2 4.927356e-3 1.112463e-1 1.752007e-2
3.100000e8 4.880589e-2 -2.765762e-1 -4.326712e0 1.506759e1 2.936659e-2 5.129621e-3 1.120722e-1 1.153578e-2
3.200000e8 4.091153e-2 -2.741298e-1 -3.718342e0 1.500412e1 2.978773e-2 4.924339e-3 1.134421e-1 4.538878e-3
3.300000e8 3.315353e-2 -2.713418e-1 -3.124324e0 1.492088e1 3.014972e-2 4.900035e-3 1.147302e-1 -2.286802e-3
3.400000e8 2.570625e-2 -2.684500e-1 -2.543686e0 1.481924e1 3.069243e-2 4.986279e-3 1.154055e-1 -8.879639e-3
3.500000e8 1.865804e-2 -2.662383e-1 -1.990117e0 1.469867e1 3.140054e-2 4.472283e-3 1.148353e-1 -1.631554e-2
3.600000e8 1.199179e-2 -2.632400e-1 -1.455753e0 1.455394e1 3.170250e-2 4.472139e-3 1.150656e-1 -2.378629e-2
3.700000e8 5.197054e-3 -2.600255e-1 -9.362578e-1 1.438747e1 3.196646e-2 4.157350e-3 1.145816e-1 -3.104986e-2
3.800000e8 -1.325879e-3 -2.565531e-1 -4.374090e-1 1.421109e1 3.234090e-2 3.858057e-3 1.138941e-1 -3.814045e-2
3.900000e8 -7.393757e-3 -2.530553e-1 4.411702e-2 1.402646e1 3.284082e-2 3.666479e-3 1.129929e-1 -4.521875e-2
4.000000e8 -1.306425e-2 -2.500872e-1 5.197377e-1 1.382440e1 3.332791e-2 3.449591e-3 1.113123e-1 -5.250632e-2
4.100000e8 -1.923998e-2 -2.462365e-1 9.570976e-1 1.360270e1 3.419595e-2 3.296885e-3 1.088276e-1 -5.934915e-2
4.200000e8 -2.422247e-2 -2.427504e-1 1.391400e0 1.338810e1 3.471460e-2 2.999435e-3 1.067458e-1 -6.636975e-2
4.300000e8 -2.905649e-2 -2.392342e-1 1.807494e0 1.315762e1 3.506353e-2 2.743855e-3 1.043974e-1 -7.353479e-2
4.400000e8 -3.411852e-2 -2.355404e-1 2.202206e0 1.291098e1 3.542394e-2 2.479398e-3 1.014996e-1 -8.066926e-2
4.500000e8 -3.910704e-2 -2.318389e-1 2.586170e0 1.266943e1 3.595905e-2 1.917994e-3 9.815638e-2 -8.750910e-2
4.600000e8 -4.321839e-2 -2.285112e-1 2.943334e0 1.240751e1 3.631598e-2 1.707024e-3 9.480868e-2 -9.470960e-2
4.700000e8 -4.728928e-2 -2.249056e-1 3.297770e0 1.214536e1 3.698310e-2 1.434201e-3 9.113413e-2 -1.013175e-1
4.800000e8 -5.149906e-2 -2.210751e-1 3.636084e0 1.188070e1 3.750606e-2 1.107252e-3 8.695941e-2 -1.077848e-1
4.900000e8 -5.552833e-2 -2.172320e-1 3.954784e0 1.161218e1 3.785931e-2 7.195583e-4 8.239038e-2 -1.141876e-1
5.000000e8 -5.850697e-2 -2.137838e-1 4.260314e0 1.133863e1 3.844384e-2 2.136993e-4 7.784874e-2 -1.202952e-1
5.100000e8 -6.216166e-2 -2.105327e-1 4.538863e0 1.105227e1 3.897808e-2 -5.710930e-4 7.295858e-2 -1.265280e-1
5.200000e8 -6.525634e-2 -2.079262e-1 4.809666e0 1.076374e1 3.945234e-2 -9.489155e-4 6.786974e-2 -1.323102e-1
5.300000e8 -6.837900e-2 -2.040659e-1 5.067845e0 1.047678e1 3.991032e-2 -1.250890e-3 6.241905e-2 -1.377720e-1
5.400000e8 -7.153471e-2 -1.990389e-1 5.312825e0 1.018933e1 4.035190e-2 -1.648017e-3 5.660497e-2 -1.431896e-1
5.500000e8 -7.424118e-2 -1.949300e-1 5.547719e0 9.893194e0 4.074606e-2 -2.148664e-3 5.057675e-2 -1.490078e-1
5.600000e8 -7.758398e-2 -1.921014e-1 5.741066e0 9.624699e0 4.148935e-2 -2.810219e-3 4.633916e-2 -1.520691e-1
5.700000e8 -8.109959e-2 -1.892342e-1 5.916746e0 9.353780e0 4.192956e-2 -3.434288e-3 4.158875e-2 -1.546738e-1
5.800000e8 -8.481614e-2 -1.861711e-1 6.087338e0 9.077157e0 4.222448e-2 -3.838148e-3 3.694125e-2 -1.568329e-1
5.900000e8 -8.854567e-2 -1.828893e-1 6.253782e0 8.796915e0 4.254204e-2 -4.142381e-3 3.253699e-2 -1.587324e-1
6.000000e8 -9.191346e-2 -1.794920e-1 6.405815e0 8.521308e0 4.303918e-2 -4.770444e-3 2.801813e-2 -1.606761e-1
6.100000e8 -9.502738e-2 -1.763204e-1 6.544426e0 8.251910e0 4.342046e-2 -5.313201e-3 2.321088e-2 -1.627600e-1
6.200000e8 -9.766950e-2 -1.728875e-1 6.668361e0 7.979461e0 4.405724e-2 -5.728268e-3 1.812599e-2 -1.646289e-1
6.300000e8 -1.003346e-1 -1.695511e-1 6.787070e0 7.710986e0 4.461716e-2 -6.226436e-3 1.292563e-2 -1.662924e-1
6.400000e8 -1.032434e-1 -1.663808e-1 6.903736e0 7.446101e0 4.496527e-2 -6.867209e-3 7.782442e-3 -1.676836e-1
6.500000e8 -1.063331e-1 -1.631897e-1 7.014814e0 7.177465e0 4.517360e-2 -7.573531e-3 2.884127e-3 -1.686722e-1
6.600000e8 -1.086414e-1 -1.598137e-1 7.106839e0 6.920453e0 4.571688e-2 -8.305530e-3 -2.240023e-3 -1.695105e-1
6.700000e8 -1.111910e-1 -1.564451e-1 7.188550e0 6.656389e0 4.601696e-2 -9.018239e-3 -7.758042e-3 -1.705140e-1
6.800000e8 -1.135030e-1 -1.530571e-1 7.263416e0 6.397979e0 4.637558e-2 -9.647363e-3 -1.310947e-2 -1.712624e-1
6.900000e8 -1.156436e-1 -1.497555e-1 7.335349e0 6.149160e0 4.682559e-2 -1.027674e-2 -1.819364e-2 -1.716784e-1
7.000000e8 -1.182269e-1 -1.467283e-1 7.408136e0 5.905193e0 4.712164e-2 -1.111860e-2 -2.339109e-2 -1.719658e-1
7.100000e8 -1.201264e-1 -1.430815e-1 7.470734e0 5.655416e0 4.742457e-2 -1.176954e-2 -2.889333e-2 -1.723136e-1
7.200000e8 -1.219005e-1 -1.399322e-1 7.518877e0 5.409441e0 4.802639e-2 -1.250992e-2 -3.425621e-2 -1.720443e-1
7.300000e8 -1.238130e-1 -1.368264e-1 7.563222e0 5.164044e0 4.861004e-2 -1.326584e-2 -3.954695e-2 -1.717126e-1
7.400000e8 -1.257493e-1 -1.335129e-1 7.608200e0 4.920340e0 4.902349e-2 -1.403871e-2 -4.484733e-2 -1.715051e-1
7.500000e8 -1.272376e-1 -1.299614e-1 7.652344e0 4.684167e0 4.927352e-2 -1.491661e-2 -5.022653e-2 -1.712418e-1
7.600000e8 -1.292320e-1 -1.261490e-1 7.663970e0 4.451033e0 4.939932e-2 -1.547445e-2 -5.581948e-2 -1.701423e-1
7.700000e8 -1.306755e-1 -1.229530e-1 7.683640e0 4.218434e0 4.952760e-2 -1.640328e-2 -6.107692e-2 -1.693000e-1
7.800000e8 -1.317279e-1 -1.201271e-1 7.697083e0 3.989762e0 4.990371e-2 -1.739169e-2 -6.620432e-2 -1.681496e-1
7.900000e8 -1.327144e-1 -1.172351e-1 7.703917e0 3.763021e0 5.043202e-2 -1.829972e-2 -7.149865e-2 -1.665410e-1
8.000000e8 -1.341079e-1 -1.136257e-1 7.717220e0 3.529913e0 5.066487e-2 -1.913363e-2 -7.737888e-2 -1.647151e-1
8.100000e8 -1.352497e-1 -1.105304e-1 7.730183e0 3.323153e0 5.066925e-2 -2.010834e-2 -8.260275e-2 -1.634573e-1
8.200000e8 -1.366083e-1 -1.073913e-1 7.725900e0 3.113473e0 5.094413e-2 -2.111102e-2 -8.758832e-2 -1.619607e-1
8.300000e8 -1.377710e-1 -1.041637e-1 7.718111e0 2.902651e0 5.122029e-2 -2.215921e-2 -9.282084e-2 -1.602579e-1
8.400000e8 -1.387264e-1 -1.008366e-1 7.707657e0 2.692561e0 5.131817e-2 -2.313564e-2 -9.819715e-2 -1.582472e-1
8.500000e8 -1.398660e-1 -9.741803e-2 7.682537e0 2.486049e0 5.115684e-2 -2.379502e-2 -1.030171e-1 -1.557515e-1
8.600000e8 -1.405757e-1 -9.469637e-2 7.668513e0 2.278005e0 5.170162e-2 -2.482520e-2 -1.079279e-1 -1.530390e-1
8.700000e8 -1.399869e-1 -9.078374e-2 7.649320e0 2.078928e0 5.182184e-2 -2.581257e-2 -1.124634e-1 -1.503559e-1
8.800000e8 -1.405396e-1 -8.751677e-2 7.618253e0 1.883387e0 5.186403e-2 -2.673280e-2 -1.171788e-1 -1.476950e-1
8.900000e8 -1.422905e-1 -8.496939e-2 7.578742e0 1.688395e0 5.197373e-2 -2.766174e-2 -1.221736e-1 -1.449152e-1
9.000000e8 -1.428167e-1 -8.156348e-2 7.544357e0 1.492588e0 5.208892e-2 -2.876221e-2 -1.270771e-1 -1.417830e-1
9.100000e8 -1.430627e-1 -7.846638e-2 7.505766e0 1.310599e0 5.198711e-2 -2.966709e-2 -1.316408e-1 -1.385010e-1
9.200000e8 -1.433697e-1 -7.535044e-2 7.462828e0 1.133148e0 5.197261e-2 -3.062450e-2 -1.359917e-1 -1.350425e-1
9.300000e8 -1.438016e-1 -7.249951e-2 7.419468e0 9.525862e-1 5.196129e-2 -3.178016e-2 -1.404642e-1 -1.315853e-1
9.400000e8 -1.441566e-1 -6.977316e-2 7.374837e0 7.725352e-1 5.193149e-2 -3.303117e-2 -1.450112e-1 -1.280612e-1
9.500000e8 -1.439405e-1 -6.663262e-2 7.324082e0 6.081409e-1 5.194151e-2 -3.403150e-2 -1.491850e-1 -1.242067e-1
9.600000e8 -1.442590e-1 -6.360746e-2 7.268426e0 4.327724e-1 5.180438e-2 -3.514622e-2 -1.533664e-1 -1.204147e-1
9.700000e8 -1.444157e-1 -6.051691e-2 7.208288e0 2.652170e-1 5.177352e-2 -3.616107e-2 -1.571327e-1 -1.164384e-1
9.800000e8 -1.444380e-1 -5.754742e-2 7.146503e0 9.883438e-2 5.169965e-2 -3.731273e-2 -1.610776e-1 -1.121655e-1
9.900000e8 -1.443633e-1 -5.467482e-2 7.082813e0 -6.486881e-2 5.151537e-2 -3.855666e-2 -1.651911e-1 -1.076142e-1
1.000000e9 -1.442263e-1 -5.167807e-2 7.014415e0 -2.160589e-1 5.125480e-2 -3.957417e-2 -1.688807e-1 -1.030003e-1
1.010000e9 -1.441057e-1 -4.892035e-2 6.947397e0 -3.719215e-1 5.096761e-2 -4.085898e-2 -1.722253e-1 -9.846227e-2
1.020000e9 -1.438194e-1 -4.602459e-2 6.875122e0 -5.250528e-1 5.077521e-2 -4.188420e-2 -1.756104e-1 -9.387561e-2
1.030000e9 -1.436026e-1 -4.303254e-2 6.804490e0 -6.755436e-1 5.053936e-2 -4.302722e-2 -1.789726e-1 -8.921726e-2
1.040000e9 -1.433929e-1 -4.008290e-2 6.733747e0 -8.231194e-1 5.026505e-2 -4.431551e-2 -1.821918e-1 -8.450846e-2
1.050000e9 -1.428381e-1 -3.743940e-2 6.652533e0 -9.665270e-1 5.012503e-2 -4.543815e-2 -1.851021e-1 -7.983001e-2
1.060000e9 -1.420857e-1 -3.438614e-2 6.588175e0 -1.103917e0 4.971182e-2 -4.664407e-2 -1.878189e-1 -7.512170e-2
1.070000e9 -1.414006e-1 -3.128919e-2 6.517031e0 -1.235153e0 4.945296e-2 -4.782263e-2 -1.902143e-1 -7.067665e-2
1.080000e9 -1.404900e-1 -2.809183e-2 6.439536e0 -1.364327e0 4.919809e-2 -4.896495e-2 -1.922939e-1 -6.617902e-2
1.090000e9 -1.394381e-1 -2.487583e-2 6.357727e0 -1.492494e0 4.880767e-2 -5.009457e-2 -1.941891e-1 -6.155178e-2
1.100000e9 -1.387124e-1 -2.184097e-2 6.275482e0 -1.617786e0 4.815070e-2 -5.126817e-2 -1.961788e-1 -5.694564e-2
1.110000e9 -1.378090e-1 -1.894024e-2 6.189041e0 -1.739371e0 4.787225e-2 -5.265415e-2 -1.982362e-1 -5.223161e-2
1.120000e9 -1.367345e-1 -1.602309e-2 6.108260e0 -1.859776e0 4.743419e-2 -5.383447e-2 -2.000347e-1 -4.747521e-2
1.130000e9 -1.353326e-1 -1.314121e-2 6.023956e0 -1.974194e0 4.703869e-2 -5.494310e-2 -2.015688e-1 -4.268052e-2
1.140000e9 -1.338151e-1 -1.037495e-2 5.936282e0 -2.085442e0 4.666823e-2 -5.608476e-2 -2.030045e-1 -3.780140e-2
1.150000e9 -1.327546e-1 -7.823098e-3 5.854212e0 -2.204614e0 4.608765e-2 -5.731958e-2 -2.046734e-1 -3.272789e-2
1.160000e9 -1.315882e-1 -5.045447e-3 5.758781e0 -2.315157e0 4.542056e-2 -5.874317e-2 -2.059076e-1 -2.749365e-2
1.170000e9 -1.298676e-1 -2.143900e-3 5.662446e0 -2.418778e0 4.483605e-2 -5.976182e-2 -2.068241e-1 -2.256612e-2
1.180000e9 -1.282845e-1 5.967610e-4 5.570936e0 -2.518133e0 4.429925e-2 -6.089506e-2 -2.076115e-1 -1.769317e-2
1.190000e9 -1.268579e-1 3.179010e-3 5.483622e0 -2.617360e0 4.370878e-2 -6.220892e-2 -2.083601e-1 -1.266626e-2
1.200000e9 -1.249325e-1 5.840430e-3 5.393395e0 -2.721637e0 4.292833e-2 -6.331134e-2 -2.090710e-1 -7.341414e-3
1.210000e9 -1.231668e-1 8.151686e-3 5.296254e0 -2.817781e0 4.222814e-2 -6.456045e-2 -2.095980e-1 -2.216487e-3
1.220000e9 -1.213608e-1 1.052066e-2 5.197379e0 -2.908760e0 4.160133e-2 -6.584934e-2 -2.098608e-1 3.095918e-3
1.230000e9 -1.195580e-1 1.299321e-2 5.098129e0 -2.997247e0 4.088224e-2 -6.704670e-2 -2.099862e-1 8.576639e-3
1.240000e9 -1.176988e-1 1.542059e-2 4.999093e0 -3.084241e0 4.004663e-2 -6.812933e-2 -2.100388e-1 1.407906e-2
1.250000e9 -1.156311e-1 1.746217e-2 4.900213e0 -3.168997e0 3.920401e-2 -6.919208e-2 -2.100324e-1 1.932831e-2
1.260000e9 -1.139355e-1 1.998192e-2 4.796845e0 -3.251875e0 3.843215e-2 -7.059324e-2 -2.099194e-1 2.461524e-2
1.270000e9 -1.118331e-1 2.210285e-2 4.696010e0 -3.332554e0 3.754831e-2 -7.170208e-2 -2.096094e-1 2.980913e-2
1.280000e9 -1.095313e-1 2.393915e-2 4.595683e0 -3.409407e0 3.661172e-2 -7.285330e-2 -2.090649e-1 3.515637e-2
1.290000e9 -1.072806e-1 2.573843e-2 4.494074e0 -3.483218e0 3.563933e-2 -7.407368e-2 -2.084047e-1 4.063177e-2
1.300000e9 -1.053770e-1 2.787515e-2 4.389468e0 -3.557204e0 3.462780e-2 -7.507927e-2 -2.079361e-1 4.594622e-2
1.310000e9 -1.031084e-1 2.983295e-2 4.285424e0 -3.626042e0 3.342683e-2 -7.615448e-2 -2.064747e-1 5.138726e-2
1.320000e9 -1.007150e-1 3.170762e-2 4.182013e0 -3.693223e0 3.239171e-2 -7.721571e-2 -2.052993e-1 5.640052e-2
1.330000e9 -9.826762e-2 3.338436e-2 4.077680e0 -3.757712e0 3.139298e-2 -7.819212e-2 -2.039921e-1 6.147317e-2
1.340000e9 -9.578289e-2 3.494715e-2 3.973904e0 -3.818442e0 3.031060e-2 -7.918382e-2 -2.024946e-1 6.683159e-2
1.350000e9 -9.320774e-2 3.667979e-2 3.875220e0 -3.874525e0 2.902141e-2 -8.046283e-2 -2.011276e-1 7.247889e-2
1.360000e9 -9.091555e-2 3.817564e-2 3.763576e0 -3.934310e0 2.783053e-2 -8.148725e-2 -1.991285e-1 7.784057e-2
1.370000e9 -8.852517e-2 3.957769e-2 3.655709e0 -3.988506e0 2.681313e-2 -8.265138e-2 -1.974106e-1 8.298584e-2
1.380000e9 -8.591161e-2 4.099787e-2 3.547389e0 -4.038581e0 2.571296e-2 -8.359662e-2 -1.954808e-1 8.818256e-2
1.390000e9 -8.317518e-2 4.225181e-2 3.438152e0 -4.086163e0 2.446171e-2 -8.442289e-2 -1.931379e-1 9.343008e-2
1.400000e9 -8.064354e-2 4.288276e-2 3.331305e0 -4.133309e0 2.314603e-2 -8.570200e-2 -1.904863e-1 9.849936e-2
1.410000e9 -7.884249e-2 4.659410e-2 3.228506e0 -4.177008e0 2.185976e-2 -8.644283e-2 -1.886992e-1 1.030200e-1
1.420000e9 -7.573489e-2 4.708401e-2 3.118840e0 -4.220321e0 2.045755e-2 -8.730631e-2 -1.863848e-1 1.078615e-1
1.430000e9 -7.268177e-2 4.665572e-2 3.011798e0 -4.258280e0 1.903534e-2 -8.831823e-2 -1.832582e-1 1.130230e-1
1.440000e9 -7.005661e-2 4.687022e-2 2.906634e0 -4.292575e0 1.767660e-2 -8.932941e-2 -1.797892e-1 1.181346e-1
1.450000e9 -6.729167e-2 4.849311e-2 2.791936e0 -4.330814e0 1.646486e-2 -9.001420e-2 -1.772337e-1 1.225231e-1
1.460000e9 -6.474190e-2 4.950240e-2 2.686444e0 -4.366709e0 1.485505e-2 -9.092252e-2 -1.738764e-1 1.272468e-1
1.470000e9 -6.197412e-2 5.001740e-2 2.581744e0 -4.393329e0 1.341083e-2 -9.179846e-2 -1.706061e-1 1.318192e-1
1.480000e9 -5.903110e-2 5.052659e-2 2.475479e0 -4.417352e0 1.205953e-2 -9.258253e-2 -1.673319e-1 1.362267e-1
1.490000e9 -5.608341e-2 5.107377e-2 2.367951e0 -4.441925e0 1.061535e-2 -9.327715e-2 -1.638766e-1 1.406147e-1
1.500000e9 -5.344966e-2 5.126380e-2 2.262370e0 -4.466867e0 8.774930e-3 -9.393813e-2 -1.599620e-1 1.452764e-1
1.510000e9 -5.066120e-2 5.188036e-2 2.149040e0 -4.490916e0 7.215899e-3 -9.485578e-2 -1.561838e-1 1.498858e-1
1.520000e9 -4.799438e-2 5.225471e-2 2.045197e0 -4.510803e0 5.654185e-3 -9.548542e-2 -1.523547e-1 1.541214e-1
1.530000e9 -4.520119e-2 5.251601e-2 1.941726e0 -4.524176e0 4.049234e-3 -9.619919e-2 -1.483202e-1 1.580786e-1
1.540000e9 -4.222469e-2 5.267465e-2 1.835917e0 -4.534018e0 2.385038e-3 -9.700315e-2 -1.441043e-1 1.617216e-1
1.550000e9 -3.921139e-2 5.263225e-2 1.731081e0 -4.549105e0 6.966096e-4 -9.753973e-2 -1.399336e-1 1.649051e-1
1.560000e9 -3.653140e-2 5.233496e-2 1.623280e0 -4.556293e0 -1.207031e-3 -9.789697e-2 -1.352233e-1 1.687756e-1
1.570000e9 -3.372332e-2 5.228540e-2 1.520186e0 -4.563203e0 -2.760908e-3 -9.850587e-2 -1.307365e-1 1.725301e-1
1.580000e9 -3.110443e-2 5.233296e-2 1.419062e0 -4.570009e0 -4.476088e-3 -9.913762e-2 -1.259296e-1 1.761819e-1
1.590000e9 -2.863356e-2 5.236805e-2 1.318820e0 -4.573060e0 -6.373802e-3 -9.964993e-2 -1.207551e-1 1.796519e-1
1.600000e9 -2.590739e-2 5.231590e-2 1.220272e0 -4.564999e0 -7.993429e-3 -1.000215e-1 -1.156698e-1 1.828273e-1
1.610000e9 -2.294158e-2 5.208174e-2 1.118523e0 -4.569075e0 -9.860838e-3 -1.007192e-1 -1.105456e-1 1.861403e-1
1.620000e9 -1.991623e-2 5.192071e-2 1.014873e0 -4.567972e0 -1.160451e-2 -1.009809e-1 -1.057202e-1 1.889235e-1
1.630000e9 -1.718768e-2 5.136650e-2 9.127817e-1 -4.562508e0 -1.331298e-2 -1.011619e-1 -1.008225e-1 1.916030e-1
1.640000e9 -1.475464e-2 5.049449e-2 8.130984e-1 -4.553420e0 -1.510679e-2 -1.013867e-1 -9.561565e-2 1.943812e-1
1.650000e9 -1.223680e-2 4.990230e-2 7.140649e-1 -4.541175e0 -1.712251e-2 -1.015472e-1 -9.002312e-2 1.972487e-1
1.660000e9 -9.781821e-3 4.928523e-2 6.151993e-1 -4.527905e0 -1.895626e-2 -1.019553e-1 -8.413562e-2 1.997974e-1
1.670000e9 -7.098029e-3 4.869914e-2 5.179309e-1 -4.518369e0 -2.096928e-2 -1.022430e-1 -7.857325e-2 2.021236e-1
1.680000e9 -4.340929e-3 4.797982e-2 4.251122e-1 -4.506518e0 -2.292278e-2 -1.023710e-1 -7.308413e-2 2.040629e-1
1.690000e9 -1.684809e-3 4.705951e-2 3.342163e-1 -4.489701e0 -2.476269e-2 -1.024048e-1 -6.754926e-2 2.057282e-1
1.700000e9 6.801827e-4 4.596121e-2 2.371039e-1 -4.468267e0 -2.662661e-2 -1.025004e-1 -6.194923e-2 2.075132e-1
1.710000e9 3.018629e-3 4.493187e-2 1.442992e-1 -4.447955e0 -2.871197e-2 -1.024571e-1 -5.619560e-2 2.091573e-1
1.720000e9 5.587739e-3 4.383650e-2 5.333706e-2 -4.425747e0 -3.070256e-2 -1.025522e-1 -5.043819e-2 2.109096e-1
1.730000e9 8.050037e-3 4.277357e-2 -3.920170e-2 -4.399662e0 -3.261676e-2 -1.026114e-1 -4.447719e-2 2.124128e-1
1.740000e9 1.040662e-2 4.172818e-2 -1.311553e-1 -4.370848e0 -3.444651e-2 -1.025335e-1 -3.845112e-2 2.134971e-1
1.750000e9 1.299568e-2 4.055316e-2 -2.150152e-1 -4.343957e0 -3.616293e-2 -1.022924e-1 -3.281585e-2 2.142147e-1
1.760000e9 1.530464e-2 3.933282e-2 -3.052554e-1 -4.317885e0 -3.839245e-2 -1.021239e-1 -2.705680e-2 2.147513e-1
1.770000e9 1.769018e-2 3.808314e-2 -3.918370e-1 -4.289603e0 -4.039849e-2 -1.019537e-1 -2.130770e-2 2.155279e-1
1.780000e9 1.994828e-2 3.677697e-2 -4.784199e-1 -4.257976e0 -4.229460e-2 -1.016087e-1 -1.537094e-2 2.163405e-1
1.790000e9 2.205723e-2 3.536639e-2 -5.649711e-1 -4.224364e0 -4.418736e-2 -1.011843e-1 -9.301938e-3 2.169239e-1
1.800000e9 2.418221e-2 3.376849e-2 -6.479539e-1 -4.192875e0 -4.619608e-2 -1.010434e-1 -3.403863e-3 2.169750e-1
1.810000e9 2.610569e-2 3.183936e-2 -7.262215e-1 -4.154467e0 -4.823147e-2 -1.007826e-1 2.892909e-3 2.170782e-1
1.820000e9 2.826928e-2 3.035019e-2 -8.073890e-1 -4.113030e0 -5.015736e-2 -1.003316e-1 8.613196e-3 2.167110e-1
1.830000e9 3.044866e-2 2.882324e-2 -8.868881e-1 -4.071538e0 -5.210272e-2 -9.990901e-2 1.427257e-2 2.162826e-1
1.840000e9 3.254800e-2 2.707104e-2 -9.631651e-1 -4.030845e0 -5.411254e-2 -9.950039e-2 2.008901e-2 2.159368e-1
1.850000e9 3.461114e-2 2.519472e-2 -1.037526e0 -3.989479e0 -5.613204e-2 -9.886527e-2 2.595470e-2 2.155829e-1
1.860000e9 3.648971e-2 2.292446e-2 -1.114389e0 -3.949107e0 -5.839008e-2 -9.822051e-2 3.195601e-2 2.150501e-1
1.870000e9 3.833889e-2 2.109270e-2 -1.190710e0 -3.905092e0 -6.044654e-2 -9.753349e-2 3.770152e-2 2.139877e-1
1.880000e9 4.004249e-2 1.946064e-2 -1.265168e0 -3.859196e0 -6.230875e-2 -9.677308e-2 4.343200e-2 2.128087e-1
1.890000e9 4.165268e-2 1.776239e-2 -1.336934e0 -3.812095e0 -6.417367e-2 -9.603846e-2 4.921642e-2 2.115945e-1
1.900000e9 4.338560e-2 1.569340e-2 -1.405596e0 -3.763362e0 -6.643689e-2 -9.554526e-2 5.492348e-2 2.101049e-1
1.910000e9 4.482196e-2 1.343526e-2 -1.477526e0 -3.715839e0 -6.825188e-2 -9.475668e-2 6.083379e-2 2.085961e-1
1.920000e9 4.662297e-2 1.140186e-2 -1.545036e0 -3.666871e0 -7.008450e-2 -9.412988e-2 6.644072e-2 2.073345e-1
1.930000e9 4.830806e-2 9.648841e-3 -1.610901e0 -3.616369e0 -7.199966e-2 -9.330328e-2 7.181304e-2 2.057570e-1
1.940000e9 4.968049e-2 7.910738e-3 -1.674755e0 -3.563988e0 -7.396999e-2 -9.230149e-2 7.708863e-2 2.037308e-1
1.950000e9 5.081583e-2 5.580139e-3 -1.733072e0 -3.509327e0 -7.590347e-2 -9.153940e-2 8.252430e-2 2.015426e-1
1.960000e9 5.225623e-2 3.359744e-3 -1.791907e0 -3.457166e0 -7.796648e-2 -9.030627e-2 8.789473e-2 1.993323e-1
1.970000e9 5.344993e-2 1.485097e-3 -1.854486e0 -3.405506e0 -7.984029e-2 -8.912374e-2 9.311520e-2 1.969131e-1
1.980000e9 5.455401e-2 -4.412467e-4 -1.914882e0 -3.350023e0 -8.168087e-2 -8.794684e-2 9.816162e-2 1.942294e-1
1.990000e9 5.576696e-2 -2.672296e-3 -1.971718e0 -3.291594e0 -8.354263e-2 -8.686047e-2 1.030915e-1 1.915169e-1
2.000000e9 5.733286e-2 -5.325789e-3 -2.028501e0 -3.235952e0 -8.538833e-2 -8.608576e-2 1.080789e-1 1.892896e-1
2.010000e9 5.837251e-2 -7.324649e-3 -2.083593e0 -3.180339e0 -8.708861e-2 -8.489195e-2 1.130878e-1 1.867548e-1
2.020000e9 5.955278e-2 -9.511973e-3 -2.136849e0 -3.120146e0 -8.897113e-2 -8.342471e-2 1.179272e-1 1.835874e-1
2.030000e9 6.036633e-2 -1.176759e-2 -2.189282e0 -3.059838e0 -9.092988e-2 -8.206781e-2 1.226766e-1 1.802623e-1
2.040000e9 6.085766e-2 -1.390323e-2 -2.240453e0 -3.000462e0 -9.289958e-2 -8.085473e-2 1.273023e-1 1.769483e-1
2.050000e9 6.162733e-2 -1.568088e-2 -2.288241e0 -2.939752e0 -9.483064e-2 -7.946741e-2 1.316190e-1 1.735294e-1
2.060000e9 6.328267e-2 -1.815013e-2 -2.337083e0 -2.880782e0 -9.649008e-2 -7.816837e-2 1.360108e-1 1.705084e-1
2.070000e9 6.407143e-2 -2.039946e-2 -2.382171e0 -2.818019e0 -9.808473e-2 -7.671455e-2 1.405640e-1 1.671405e-1
2.080000e9 6.450328e-2 -2.274129e-2 -2.425097e0 -2.755401e0 -9.975794e-2 -7.532427e-2 1.452689e-1 1.634755e-1
2.090000e9 6.486653e-2 -2.507691e-2 -2.466433e0 -2.693047e0 -1.015262e-1 -7.392704e-2 1.498165e-1 1.596349e-1
2.100000e9 6.525706e-2 -2.687850e-2 -2.505492e0 -2.627339e0 -1.032603e-1 -7.217414e-2 1.536005e-1 1.558497e-1
2.110000e9 6.334861e-2 -2.924810e-2 -2.547523e0 -2.564208e0 -1.048334e-1 -7.055382e-2 1.582568e-1 1.517260e-1
2.120000e9 6.608675e-2 -3.152748e-2 -2.587678e0 -2.503451e0 -1.064634e-1 -6.886401e-2 1.617928e-1 1.479968e-1
2.130000e9 6.803659e-2 -3.392322e-2 -2.623412e0 -2.439550e0 -1.079504e-1 -6.720742e-2 1.650252e-1 1.441225e-1
2.140000e9 6.779534e-2 -3.625511e-2 -2.656744e0 -2.373147e0 -1.094005e-1 -6.555792e-2 1.684871e-1 1.398999e-1
2.150000e9 6.798032e-2 -3.816943e-2 -2.694579e0 -2.310602e0 -1.112132e-1 -6.373529e-2 1.724567e-1 1.354747e-1
2.160000e9 6.873471e-2 -4.002572e-2 -2.723259e0 -2.238167e0 -1.126905e-1 -6.218402e-2 1.755899e-1 1.308285e-1
2.170000e9 6.880988e-2 -4.232962e-2 -2.751748e0 -2.174946e0 -1.141437e-1 -6.034487e-2 1.787710e-1 1.266537e-1
2.180000e9 6.897852e-2 -4.453093e-2 -2.782332e0 -2.110856e0 -1.156760e-1 -5.847638e-2 1.818063e-1 1.223446e-1
2.190000e9 6.939966e-2 -4.646773e-2 -2.812367e0 -2.044173e0 -1.172716e-1 -5.665661e-2 1.846383e-1 1.178320e-1
2.200000e9 6.960620e-2 -4.834384e-2 -2.834874e0 -1.981836e0 -1.187834e-1 -5.479317e-2 1.874025e-1 1.135747e-1
2.210000e9 6.983241e-2 -5.024925e-2 -2.860889e0 -1.912443e0 -1.199064e-1 -5.271105e-2 1.901123e-1 1.090987e-1
2.220000e9 6.992890e-2 -5.239794e-2 -2.886633e0 -1.846221e0 -1.211679e-1 -5.089718e-2 1.926859e-1 1.046248e-1
2.230000e9 6.989757e-2 -5.459994e-2 -2.906873e0 -1.779749e0 -1.224567e-1 -4.879151e-2 1.949567e-1 9.985393e-2
2.240000e9 6.980405e-2 -5.669776e-2 -2.923227e0 -1.711588e0 -1.236930e-1 -4.645384e-2 1.970455e-1 9.482729e-2
2.250000e9 6.975709e-2 -5.857624e-2 -2.944248e0 -1.641793e0 -1.248713e-1 -4.455748e-2 1.993923e-1 8.987296e-2
2.260000e9 6.997315e-2 -6.053851e-2 -2.963680e0 -1.577953e0 -1.258893e-1 -4.252518e-2 2.015260e-1 8.533891e-2
2.270000e9 6.990797e-2 -6.268400e-2 -2.980241e0 -1.511515e0 -1.271488e-1 -4.061897e-2 2.034621e-1 8.077970e-2
2.280000e9 6.984393e-2 -6.463338e-2 -2.994169e0 -1.445207e0 -1.283847e-1 -3.858052e-2 2.053199e-1 7.600374e-2
2.290000e9 6.980223e-2 -6.642536e-2 -3.006529e0 -1.380045e0 -1.294819e-1 -3.632961e-2 2.069599e-1 7.109726e-2
2.300000e9 6.951743e-2 -6.849903e-2 -3.019101e0 -1.315293e0 -1.304863e-1 -3.395219e-2 2.080049e-1 6.643868e-2
2.310000e9 6.963760e-2 -7.035564e-2 -3.030513e0 -1.244851e0 -1.314152e-1 -3.163430e-2 2.093908e-1 6.177656e-2
2.320000e9 6.919184e-2 -7.226393e-2 -3.045355e0 -1.182180e0 -1.323018e-1 -2.949899e-2 2.109125e-1 5.704807e-2
2.330000e9 6.867399e-2 -7.400781e-2 -3.056282e0 -1.120078e0 -1.332758e-1 -2.734888e-2 2.121676e-1 5.231037e-2
2.340000e9 6.841345e-2 -7.562394e-2 -3.061715e0 -1.055226e0 -1.342872e-1 -2.508246e-2 2.130548e-1 4.756532e-2
2.350000e9 6.855391e-2 -7.739630e-2 -3.066068e0 -9.877693e-1 -1.351140e-1 -2.270653e-2 2.137706e-1 4.272504e-2
2.360000e9 6.817988e-2 -7.925834e-2 -3.073473e0 -9.201886e-1 -1.358307e-1 -2.040160e-2 2.141193e-1 3.772581e-2
2.370000e9 6.807472e-2 -8.123709e-2 -3.074833e0 -8.539843e-1 -1.365123e-1 -1.813528e-2 2.147146e-1 3.313877e-2
2.380000e9 6.800757e-2 -8.288474e-2 -3.076998e0 -7.899104e-1 -1.372070e-1 -1.570712e-2 2.152848e-1 2.844109e-2
2.390000e9 6.777063e-2 -8.427984e-2 -3.080786e0 -7.269675e-1 -1.379050e-1 -1.321247e-2 2.156704e-1 2.365163e-2
2.400000e9 6.715515e-2 -8.603686e-2 -3.080887e0 -6.628341e-1 -1.385585e-1 -1.104486e-2 2.158779e-1 1.931473e-2
2.410000e9 6.699736e-2 -8.764155e-2 -3.080247e0 -5.991736e-1 -1.391358e-1 -8.594001e-3 2.161598e-1 1.446198e-2
2.420000e9 6.681520e-2 -8.940069e-2 -3.078655e0 -5.333318e-1 -1.397960e-1 -5.920624e-3 2.158207e-1 9.716624e-3
2.430000e9 6.643992e-2 -9.131129e-2 -3.074295e0 -4.702476e-1 -1.403074e-1 -3.435829e-3 2.155503e-1 5.333403e-3
2.440000e9 6.583244e-2 -9.310556e-2 -3.068022e0 -4.109861e-1 -1.407568e-1 -1.113352e-3 2.154748e-1 1.077171e-3
2.450000e9 6.510449e-2 -9.423730e-2 -3.063099e0 -3.525648e-1 -1.415191e-1 1.530423e-3 2.151037e-1 -3.711318e-3
2.460000e9 6.495122e-2 -9.554784e-2 -3.059826e0 -2.876270e-1 -1.416375e-1 4.048654e-3 2.143862e-1 -8.392460e-3
2.470000e9 6.471122e-2 -9.671194e-2 -3.051794e0 -2.249773e-1 -1.418568e-1 6.520270e-3 2.141643e-1 -1.271538e-2
2.480000e9 6.438278e-2 -9.822757e-2 -3.039741e0 -1.661472e-1 -1.420470e-1 8.996205e-3 2.138012e-1 -1.670478e-2
2.490000e9 6.402766e-2 -1.001546e-1 -3.025034e0 -1.086874e-1 -1.422372e-1 1.150199e-2 2.130736e-1 -2.064632e-2
2.500000e9 6.379593e-2 -1.021106e-1 -3.009398e0 -4.614247e-2 -1.426167e-1 1.404871e-2 2.121366e-1 -2.511833e-2
2.510000e9 6.367962e-2 -1.034284e-1 -2.999033e0 1.364830e-2 -1.428125e-1 1.665678e-2 2.110991e-1 -2.921993e-2
2.520000e9 6.303334e-2 -1.045840e-1 -2.988185e0 7.629237e-2 -1.428793e-1 1.933406e-2 2.099201e-1 -3.312280e-2
2.530000e9 6.249277e-2 -1.057850e-1 -2.974807e0 1.340547e-1 -1.429491e-1 2.189207e-2 2.087685e-1 -3.717706e-2
2.540000e9 6.239599e-2 -1.070781e-1 -2.958528e0 1.872468e-1 -1.429259e-1 2.441044e-2 2.076100e-1 -4.126229e-2
2.550000e9 6.281399e-2 -1.083272e-1 -2.940093e0 2.443137e-1 -1.424691e-1 2.722027e-2 2.062496e-1 -4.475697e-2
2.560000e9 6.202290e-2 -1.100843e-1 -2.923102e0 2.968963e-1 -1.424452e-1 2.994751e-2 2.047029e-1 -4.899274e-2
2.570000e9 6.170161e-2 -1.117177e-1 -2.905715e0 3.531543e-1 -1.423399e-1 3.246540e-2 2.029219e-1 -5.279310e-2
2.580000e9 6.136813e-2 -1.134508e-1 -2.886797e0 4.071054e-1 -1.422590e-1 3.488845e-2 2.012217e-1 -5.659137e-2
2.590000e9 6.094933e-2 -1.153015e-1 -2.865345e0 4.581159e-1 -1.421531e-1 3.730171e-2 1.996585e-1 -6.047793e-2
2.600000e9 6.079621e-2 -1.171016e-1 -2.840118e0 5.108906e-1 -1.418199e-1 3.975186e-2 1.980603e-1 -6.417685e-2
2.610000e9 6.011167e-2 -1.182921e-1 -2.826383e0 5.629776e-1 -1.414690e-1 4.262848e-2 1.962389e-1 -6.816793e-2
2.620000e9 5.988643e-2 -1.198021e-1 -2.800362e0 6.161153e-1 -1.410432e-1 4.515864e-2 1.940649e-1 -7.153925e-2
2.630000e9 5.958156e-2 -1.213894e-1 -2.774916e0 6.671783e-1 -1.405660e-1 4.774816e-2 1.919965e-1 -7.469741e-2
2.640000e9 5.913234e-2 -1.229875e-1 -2.752096e0 7.162876e-1 -1.400743e-1 5.038572e-2 1.901211e-1 -7.783335e-2
2.650000e9 5.894188e-2 -1.247427e-1 -2.722968e0 7.660860e-1 -1.396469e-1 5.264723e-2 1.881856e-1 -8.089803e-2
2.660000e9 5.866303e-2 -1.262354e-1 -2.700308e0 8.147061e-1 -1.391194e-1 5.517978e-2 1.862152e-1 -8.432725e-2
2.670000e9 5.840525e-2 -1.278690e-1 -2.672433e0 8.590279e-1 -1.384923e-1 5.784086e-2 1.839203e-1 -8.733377e-2
2.680000e9 5.802216e-2 -1.293296e-1 -2.645600e0 9.054746e-1 -1.377311e-1 6.046433e-2 1.814983e-1 -9.017751e-2
2.690000e9 5.756016e-2 -1.307102e-1 -2.619526e0 9.538442e-1 -1.368514e-1 6.296381e-2 1.790904e-1 -9.296172e-2
2.700000e9 5.723320e-2 -1.325332e-1 -2.587846e0 9.969011e-1 -1.359126e-1 6.533502e-2 1.768049e-1 -9.563529e-2
2.710000e9 5.719614e-2 -1.336904e-1 -2.557442e0 1.043656e0 -1.351959e-1 6.797349e-2 1.746847e-1 -9.858692e-2
2.720000e9 5.689402e-2 -1.353943e-1 -2.527055e0 1.090528e0 -1.343728e-1 7.038594e-2 1.725256e-1 -1.012562e-1
2.730000e9 5.659458e-2 -1.368656e-1 -2.497768e0 1.134787e0 -1.335929e-1 7.289360e-2 1.700516e-1 -1.038827e-1
2.740000e9 5.626063e-2 -1.380448e-1 -2.468272e0 1.176525e0 -1.328680e-1 7.553054e-2 1.674096e-1 -1.065008e-1
2.750000e9 5.551504e-2 -1.395784e-1 -2.434698e0 1.218455e0 -1.320910e-1 7.803453e-2 1.651874e-1 -1.089803e-1
2.760000e9 5.572611e-2 -1.413394e-1 -2.399513e0 1.261137e0 -1.307190e-1 8.062980e-2 1.625823e-1 -1.108635e-1
2.770000e9 5.541888e-2 -1.429359e-1 -2.367602e0 1.299487e0 -1.297237e-1 8.302219e-2 1.599777e-1 -1.130044e-1
2.780000e9 5.527151e-2 -1.444185e-1 -2.334010e0 1.339067e0 -1.285934e-1 8.541790e-2 1.575787e-1 -1.151344e-1
2.790000e9 5.534936e-2 -1.459393e-1 -2.298310e0 1.378966e0 -1.272834e-1 8.784673e-2 1.553126e-1 -1.171154e-1
2.800000e9 5.508328e-2 -1.477043e-1 -2.265027e0 1.412149e0 -1.262261e-1 9.019503e-2 1.527989e-1 -1.189241e-1
2.810000e9 5.445161e-2 -1.491131e-1 -2.227440e0 1.449610e0 -1.247648e-1 9.280082e-2 1.504172e-1 -1.209505e-1
2.820000e9 5.400711e-2 -1.509304e-1 -2.190212e0 1.486363e0 -1.235146e-1 9.518883e-2 1.477990e-1 -1.224794e-1
2.830000e9 5.360669e-2 -1.527160e-1 -2.152947e0 1.522495e0 -1.222847e-1 9.758577e-2 1.451490e-1 -1.240093e-1
2.840000e9 5.329602e-2 -1.543402e-1 -2.116459e0 1.557847e0 -1.208926e-1 9.994052e-2 1.425814e-1 -1.256849e-1
2.850000e9 5.328376e-2 -1.559872e-1 -2.082772e0 1.592084e0 -1.191814e-1 1.019262e-1 1.401444e-1 -1.272983e-1
2.860000e9 5.313644e-2 -1.576564e-1 -2.043691e0 1.629783e0 -1.177177e-1 1.043922e-1 1.373437e-1 -1.282975e-1
2.870000e9 5.319926e-2 -1.593274e-1 -2.001994e0 1.661275e0 -1.162987e-1 1.067691e-1 1.348923e-1 -1.294338e-1
2.880000e9 5.314407e-2 -1.609970e-1 -1.960238e0 1.692350e0 -1.146951e-1 1.090890e-1 1.325493e-1 -1.304104e-1
2.890000e9 5.284879e-2 -1.626912e-1 -1.919618e0 1.723539e0 -1.129782e-1 1.113750e-1 1.301075e-1 -1.313154e-1
2.900000e9 5.238534e-2 -1.644728e-1 -1.880327e0 1.750041e0 -1.115196e-1 1.136613e-1 1.273545e-1 -1.326273e-1
2.910000e9 5.206523e-2 -1.661301e-1 -1.840627e0 1.782001e0 -1.096226e-1 1.158084e-1 1.248716e-1 -1.335690e-1
2.920000e9 5.182976e-2 -1.677398e-1 -1.798390e0 1.808548e0 -1.077699e-1 1.180144e-1 1.225229e-1 -1.341458e-1
2.930000e9 5.166481e-2 -1.694812e-1 -1.756637e0 1.835028e0 -1.058752e-1 1.202307e-1 1.200938e-1 -1.347791e-1
2.940000e9 5.158024e-2 -1.714744e-1 -1.716392e0 1.863229e0 -1.039103e-1 1.223835e-1 1.176464e-1 -1.355359e-1
2.950000e9 5.160475e-2 -1.737872e-1 -1.676914e0 1.891253e0 -1.019055e-1 1.243767e-1 1.155477e-1 -1.361595e-1
2.960000e9 5.086028e-2 -1.754452e-1 -1.634321e0 1.915272e0 -1.004203e-1 1.265620e-1 1.124278e-1 -1.370648e-1
2.970000e9 5.051983e-2 -1.771396e-1 -1.592109e0 1.939897e0 -9.830781e-2 1.287790e-1 1.101905e-1 -1.377691e-1
2.980000e9 5.032666e-2 -1.789852e-1 -1.549871e0 1.962954e0 -9.604734e-2 1.308361e-1 1.082037e-1 -1.381272e-1
2.990000e9 5.007552e-2 -1.809672e-1 -1.507292e0 1.983620e0 -9.390635e-2 1.327182e-1 1.060882e-1 -1.382106e-1
3.000000e9 4.962522e-2 -1.829518e-1 -1.464067e0 2.002412e0 -9.193068e-2 1.345707e-1 1.037056e-1 -1.383255e-1
3.010000e9 4.948852e-2 -1.851114e-1 -1.420503e0 2.023941e0 -8.987982e-2 1.364369e-1 1.018696e-1 -1.386077e-1
3.020000e9 4.906994e-2 -1.874068e-1 -1.376393e0 2.043598e0 -8.759507e-2 1.384898e-1 9.976136e-2 -1.388187e-1
3.030000e9 4.873118e-2 -1.894290e-1 -1.332579e0 2.063292e0 -8.530199e-2 1.403666e-1 9.774480e-2 -1.387632e-1
3.040000e9 4.850990e-2 -1.912674e-1 -1.289203e0 2.082676e0 -8.309685e-2 1.420375e-1 9.589545e-2 -1.386570e-1
3.050000e9 4.809963e-2 -1.935009e-1 -1.245886e0 2.099116e0 -8.092721e-2 1.437943e-1 9.397687e-2 -1.391022e-1
3.060000e9 4.799173e-2 -1.957793e-1 -1.197291e0 2.113704e0 -7.813910e-2 1.454898e-1 9.230293e-2 -1.389305e-1
3.070000e9 4.769938e-2 -1.978840e-1 -1.151808e0 2.128689e0 -7.556283e-2 1.472583e-1 9.069755e-2 -1.384899e-1
3.080000e9 4.746255e-2 -2.000906e-1 -1.105008e0 2.144118e0 -7.307599e-2 1.489907e-1 8.919462e-2 -1.380673e-1
3.090000e9 4.733807e-2 -2.024743e-1 -1.057168e0 2.159482e0 -7.061376e-2 1.506710e-1 8.769795e-2 -1.376822e-1
3.100000e9 4.721465e-2 -2.048864e-1 -1.013278e0 2.174058e0 -6.816100e-2 1.523800e-1 8.599942e-2 -1.370701e-1
3.110000e9 4.664474e-2 -2.077353e-1 -9.657319e-1 2.186363e0 -6.547945e-2 1.537378e-1 8.487777e-2 -1.365403e-1
3.120000e9 4.634028e-2 -2.101672e-1 -9.168713e-1 2.194894e0 -6.266497e-2 1.553311e-1 8.390032e-2 -1.360301e-1
3.130000e9 4.600803e-2 -2.127198e-1 -8.698172e-1 2.203664e0 -5.991002e-2 1.568176e-1 8.276554e-2 -1.354978e-1
3.140000e9 4.552576e-2 -2.154456e-1 -8.246096e-1 2.212342e0 -5.716131e-2 1.580880e-1 8.157114e-2 -1.349158e-1
3.150000e9 4.495230e-2 -2.179458e-1 -7.785232e-1 2.216039e0 -5.410448e-2 1.592453e-1 8.082058e-2 -1.343194e-1
3.160000e9 4.470227e-2 -2.203399e-1 -7.311221e-1 2.227699e0 -5.144239e-2 1.606431e-1 7.954303e-2 -1.336236e-1
3.170000e9 4.443169e-2 -2.231087e-1 -6.856102e-1 2.235010e0 -4.861421e-2 1.621430e-1 7.839204e-2 -1.327095e-1
3.180000e9 4.405638e-2 -2.258667e-1 -6.400527e-1 2.242060e0 -4.573487e-2 1.632902e-1 7.747898e-2 -1.320718e-1
3.190000e9 4.344403e-2 -2.285281e-1 -5.933594e-1 2.247973e0 -4.286712e-2 1.641598e-1 7.682657e-2 -1.317889e-1
3.200000e9 4.240171e-2 -2.313097e-1 -5.456183e-1 2.246982e0 -3.998313e-2 1.653494e-1 7.641456e-2 -1.315172e-1
3.210000e9 4.191510e-2 -2.341230e-1 -4.997907e-1 2.254488e0 -3.712017e-2 1.664731e-1 7.550088e-2 -1.305164e-1
3.220000e9 4.116878e-2 -2.372625e-1 -4.555287e-1 2.253532e0 -3.385715e-2 1.675347e-1 7.494173e-2 -1.297712e-1
3.230000e9 4.041892e-2 -2.402927e-1 -4.091385e-1 2.251994e0 -3.067360e-2 1.684331e-1 7.469002e-2 -1.292374e-1
3.240000e9 3.967662e-2 -2.432119e-1 -3.615812e-1 2.252126e0 -2.767316e-2 1.692355e-1 7.452812e-2 -1.287577e-1
3.250000e9 3.866860e-2 -2.464310e-1 -3.188547e-1 2.250926e0 -2.457512e-2 1.701503e-1 7.407154e-2 -1.280548e-1
3.260000e9 3.753455e-2 -2.495202e-1 -2.680801e-1 2.250565e0 -2.162220e-2 1.708157e-1 7.388376e-2 -1.276419e-1
3.270000e9 3.636389e-2 -2.526383e-1 -2.233630e-1 2.246966e0 -1.850404e-2 1.713722e-1 7.378313e-2 -1.270998e-1
3.280000e9 3.527709e-2 -2.556925e-1 -1.792355e-1 2.243420e0 -1.543316e-2 1.720579e-1 7.355794e-2 -1.264784e-1
3.290000e9 3.424803e-2 -2.587825e-1 -1.335647e-1 2.240323e0 -1.235272e-2 1.727804e-1 7.332030e-2 -1.257925e-1
3.300000e9 3.307054e-2 -2.621759e-1 -8.775178e-2 2.235416e0 -8.962816e-3 1.730978e-1 7.349363e-2 -1.250609e-1
3.310000e9 3.169279e-2 -2.654452e-1 -4.283985e-2 2.229910e0 -5.848717e-3 1.736261e-1 7.337791e-2 -1.248395e-1
3.320000e9 3.045203e-2 -2.687445e-1 2.127352e-3 2.223306e0 -2.572558e-3 1.740314e-1 7.350342e-2 -1.242780e-1
3.330000e9 2.905696e-2 -2.721197e-1 4.503191e-2 2.214647e0 7.618574e-4 1.743704e-1 7.373062e-2 -1.236998e-1
3.340000e9 2.737384e-2 -2.755505e-1 8.712237e-2 2.204187e0 4.073653e-3 1.746596e-1 7.395291e-2 -1.233406e-1
3.350000e9 2.542540e-2 -2.789717e-1 1.330882e-1 2.193132e0 7.302213e-3 1.748740e-1 7.410946e-2 -1.233577e-1
3.360000e9 2.411873e-2 -2.822701e-1 1.754110e-1 2.185341e0 1.057030e-2 1.751853e-1 7.444117e-2 -1.224736e-1
3.370000e9 2.181145e-2 -2.856563e-1 2.187402e-1 2.173129e0 1.377309e-2 1.750404e-1 7.498707e-2 -1.220188e-1
3.380000e9 1.938862e-2 -2.889330e-1 2.612073e-1 2.159243e0 1.687047e-2 1.749393e-1 7.547208e-2 -1.217720e-1
3.390000e9 1.722656e-2 -2.923278e-1 3.024152e-1 2.145991e0 1.999010e-2 1.749225e-1 7.580107e-2 -1.216268e-1
3.400000e9 1.515410e-2 -2.964575e-1 3.433756e-1 2.135154e0 2.339167e-2 1.745640e-1 7.603495e-2 -1.216160e-1
3.410000e9 1.263480e-2 -2.999040e-1 3.851273e-1 2.118033e0 2.696866e-2 1.743648e-1 7.688595e-2 -1.218170e-1
3.420000e9 1.010673e-2 -3.031103e-1 4.257669e-1 2.102997e0 2.998223e-2 1.742026e-1 7.732741e-2 -1.217934e-1
3.430000e9 7.682427e-3 -3.063381e-1 4.649128e-1 2.088335e0 3.311026e-2 1.739058e-1 7.782962e-2 -1.218743e-1
3.440000e9 5.296522e-3 -3.097955e-1 5.031447e-1 2.071607e0 3.654248e-2 1.734415e-1 7.857562e-2 -1.221874e-1
3.450000e9 2.726618e-3 -3.136227e-1 5.419629e-1 2.049571e0 3.999598e-2 1.729500e-1 7.948458e-2 -1.226231e-1
3.460000e9 1.617586e-4 -3.171966e-1 5.829268e-1 2.031679e0 4.331128e-2 1.726077e-1 8.017540e-2 -1.230599e-1
3.470000e9 -2.800003e-3 -3.203412e-1 6.182935e-1 2.013857e0 4.655467e-2 1.722338e-1 8.095348e-2 -1.233687e-1
3.480000e9 -5.881466e-3 -3.236114e-1 6.546864e-1 1.993567e0 4.973021e-2 1.715634e-1 8.183789e-2 -1.239628e-1
3.490000e9 -8.956160e-3 -3.270937e-1 6.933428e-1 1.971419e0 5.290614e-2 1.706518e-1 8.283650e-2 -1.247971e-1
3.500000e9 -1.199729e-2 -3.304067e-1 7.303978e-1 1.951522e0 5.623936e-2 1.698677e-1 8.399968e-2 -1.253599e-1
3.510000e9 -1.591202e-2 -3.335281e-1 7.651263e-1 1.930992e0 5.938380e-2 1.689327e-1 8.469231e-2 -1.262028e-1
3.520000e9 -1.788857e-2 -3.375816e-1 7.993737e-1 1.908886e0 6.243704e-2 1.680274e-1 8.516495e-2 -1.271617e-1
3.530000e9 -2.145355e-2 -3.407390e-1 8.340326e-1 1.886621e0 6.558516e-2 1.671378e-1 8.576035e-2 -1.274245e-1
3.540000e9 -2.664677e-2 -3.431079e-1 8.692578e-1 1.864019e0 6.887588e-2 1.661882e-1 8.666171e-2 -1.271877e-1
3.550000e9 -3.014090e-2 -3.468658e-1 9.042807e-1 1.839322e0 7.221106e-2 1.650470e-1 8.779339e-2 -1.276311e-1
3.560000e9 -3.397808e-2 -3.509810e-1 9.404638e-1 1.812515e0 7.555200e-2 1.634526e-1 8.895476e-2 -1.288376e-1
3.570000e9 -3.759180e-2 -3.541139e-1 9.737429e-1 1.787374e0 7.857196e-2 1.620981e-1 9.000969e-2 -1.299239e-1
3.580000e9 -4.130746e-2 -3.572151e-1 1.004683e0 1.761563e0 8.174960e-2 1.608910e-1 9.112865e-2 -1.310960e-1
3.590000e9 -4.557270e-2 -3.602420e-1 1.034806e0 1.734652e0 8.508850e-2 1.596892e-1 9.226847e-2 -1.318373e-1
3.600000e9 -5.088632e-2 -3.621602e-1 1.066784e0 1.707999e0 8.812343e-2 1.583351e-1 9.325592e-2 -1.308786e-1
3.610000e9 -5.481040e-2 -3.660720e-1 1.099591e0 1.675728e0 9.122450e-2 1.566064e-1 9.476685e-2 -1.338273e-1
3.620000e9 -5.889004e-2 -3.693995e-1 1.129023e0 1.647456e0 9.428168e-2 1.550673e-1 9.580388e-2 -1.356451e-1
3.630000e9 -6.325750e-2 -3.724843e-1 1.158440e0 1.620401e0 9.714388e-2 1.533771e-1 9.657884e-2 -1.370555e-1
3.640000e9 -6.789081e-2 -3.754888e-1 1.188045e0 1.592503e0 9.995760e-2 1.515406e-1 9.737482e-2 -1.384982e-1
3.650000e9 -7.260075e-2 -3.784212e-1 1.214967e0 1.562620e0 1.031908e-1 1.498809e-1 9.858349e-2 -1.401445e-1
3.660000e9 -7.782241e-2 -3.812185e-1 1.242662e0 1.528829e0 1.063666e-1 1.477828e-1 9.953770e-2 -1.419914e-1
3.670000e9 -8.289122e-2 -3.839203e-1 1.268822e0 1.497734e0 1.092795e-1 1.458086e-1 1.005446e-1 -1.438907e-1
3.680000e9 -8.794777e-2 -3.864612e-1 1.293008e0 1.466146e0 1.119978e-1 1.438519e-1 1.014183e-1 -1.457709e-1
3.690000e9 -9.308909e-2 -3.887841e-1 1.316245e0 1.433686e0 1.146308e-1 1.418853e-1 1.022106e-1 -1.476233e-1
3.700000e9 -9.836695e-2 -3.908621e-1 1.341208e0 1.402652e0 1.173333e-1 1.399556e-1 1.032108e-1 -1.495299e-1
3.710000e9 -1.035315e-1 -3.933091e-1 1.364480e0 1.370312e0 1.205810e-1 1.377857e-1 1.042151e-1 -1.516009e-1
3.720000e9 -1.089628e-1 -3.956433e-1 1.388083e0 1.337268e0 1.232280e-1 1.356395e-1 1.048956e-1 -1.537103e-1
3.730000e9 -1.146007e-1 -3.977961e-1 1.410335e0 1.303491e0 1.256763e-1 1.334331e-1 1.054654e-1 -1.557754e-1
3.740000e9 -1.204116e-1 -3.997969e-1 1.430623e0 1.269523e0 1.282200e-1 1.311170e-1 1.059876e-1 -1.578496e-1
3.750000e9 -1.263888e-1 -4.017781e-1 1.449442e0 1.236409e0 1.310494e-1 1.286856e-1 1.063676e-1 -1.601059e-1
3.760000e9 -1.325285e-1 -4.033731e-1 1.469649e0 1.202124e0 1.335588e-1 1.262550e-1 1.070422e-1 -1.624619e-1
3.770000e9 -1.383739e-1 -4.050130e-1 1.488827e0 1.168421e0 1.360446e-1 1.238037e-1 1.075143e-1 -1.647391e-1
3.780000e9 -1.443012e-1 -4.066864e-1 1.506075e0 1.134199e0 1.385025e-1 1.212034e-1 1.077477e-1 -1.671345e-1
3.790000e9 -1.504421e-1 -4.082067e-1 1.521912e0 1.099401e0 1.408729e-1 1.184890e-1 1.078331e-1 -1.696954e-1
3.800000e9 -1.566782e-1 -4.092407e-1 1.538337e0 1.064887e0 1.430534e-1 1.158594e-1 1.080098e-1 -1.723393e-1
3.810000e9 -1.626792e-1 -4.102835e-1 1.552802e0 1.030737e0 1.452826e-1 1.133964e-1 1.078437e-1 -1.750759e-1
3.820000e9 -1.690058e-1 -4.111623e-1 1.567533e0 9.946068e-1 1.474180e-1 1.107315e-1 1.076942e-1 -1.777465e-1
3.830000e9 -1.753657e-1 -4.120998e-1 1.582242e0 9.591151e-1 1.496657e-1 1.079692e-1 1.078179e-1 -1.804099e-1
3.840000e9 -1.817489e-1 -4.129198e-1 1.596679e0 9.247217e-1 1.519227e-1 1.051830e-1 1.080382e-1 -1.831106e-1
3.850000e9 -1.883963e-1 -4.130247e-1 1.610517e0 8.897438e-1 1.537806e-1 1.024394e-1 1.077498e-1 -1.858272e-1
3.860000e9 -1.952168e-1 -4.137388e-1 1.621420e0 8.519789e-1 1.562311e-1 9.960037e-2 1.077636e-1 -1.885479e-1
3.870000e9 -2.018549e-1 -4.140959e-1 1.632110e0 8.158695e-1 1.582312e-1 9.685600e-2 1.073988e-1 -1.911021e-1
3.880000e9 -2.085311e-1 -4.143225e-1 1.642352e0 7.810826e-1 1.601784e-1 9.389253e-2 1.068178e-1 -1.937288e-1
3.890000e9 -2.153626e-1 -4.144966e-1 1.652385e0 7.461200e-1 1.621566e-1 9.072877e-2 1.061592e-1 -1.964685e-1
3.900000e9 -2.223465e-1 -4.145663e-1 1.662842e0 7.082728e-1 1.639636e-1 8.773411e-2 1.055672e-1 -1.991629e-1
3.910000e9 -2.291946e-1 -4.136680e-1 1.668174e0 6.755679e-1 1.653290e-1 8.452197e-2 1.045467e-1 -2.019096e-1
3.920000e9 -2.356630e-1 -4.131818e-1 1.675136e0 6.413058e-1 1.670403e-1 8.157808e-2 1.037826e-1 -2.048570e-1
3.930000e9 -2.421989e-1 -4.127285e-1 1.682191e0 6.056986e-1 1.688040e-1 7.853959e-2 1.029982e-1 -2.079228e-1
3.940000e9 -2.489442e-1 -4.120755e-1 1.688529e0 5.695086e-1 1.704276e-1 7.536194e-2 1.020122e-1 -2.109310e-1
3.950000e9 -2.557512e-1 -4.111692e-1 1.694094e0 5.339870e-1 1.718398e-1 7.230768e-2 1.007513e-1 -2.136306e-1
3.960000e9 -2.627471e-1 -4.102034e-1 1.700099e0 4.982192e-1 1.729044e-1 6.905446e-2 9.944215e-2 -2.166343e-1
3.970000e9 -2.698264e-1 -4.087659e-1 1.704493e0 4.612570e-1 1.741887e-1 6.578247e-2 9.812010e-2 -2.196515e-1
3.980000e9 -2.765396e-1 -4.071447e-1 1.705969e0 4.259600e-1 1.756690e-1 6.258838e-2 9.680884e-2 -2.224117e-1
3.990000e9 -2.830918e-1 -4.055205e-1 1.705983e0 3.925105e-1 1.771898e-1 5.941515e-2 9.555586e-2 -2.250313e-1
4.000000e9 -2.903464e-1 -4.039230e-1 1.708567e0 3.582602e-1 1.784542e-1 5.606619e-2 9.438444e-2 -2.280115e-1
4.010000e9 -2.973415e-1 -4.020986e-1 1.708990e0 3.223725e-1 1.796045e-1 5.287811e-2 9.269183e-2 -2.304997e-1
4.020000e9 -3.042035e-1 -3.997496e-1 1.711041e0 2.875256e-1 1.805128e-1 4.941470e-2 9.076313e-2 -2.331230e-1
4.030000e9 -3.109379e-1 -3.974902e-1 1.711044e0 2.530453e-1 1.815588e-1 4.606430e-2 8.884388e-2 -2.357922e-1
4.040000e9 -3.176842e-1 -3.954334e-1 1.708937e0 2.184846e-1 1.827492e-1 4.281718e-2 8.696237e-2 -2.385051e-1
4.050000e9 -3.246902e-1 -3.931760e-1 1.708289e0 1.833572e-1 1.836946e-1 3.929522e-2 8.492038e-2 -2.413193e-1
4.060000e9 -3.308089e-1 -3.905869e-1 1.706323e0 1.515254e-1 1.845106e-1 3.591567e-2 8.321670e-2 -2.440705e-1
4.070000e9 -3.374385e-1 -3.877471e-1 1.704791e0 1.172323e-1 1.853901e-1 3.279608e-2 8.118375e-2 -2.468632e-1
4.080000e9 -3.443135e-1 -3.846632e-1 1.702451e0 8.281650e-2 1.862034e-1 2.944315e-2 7.874638e-2 -2.496442e-1
4.090000e9 -3.509872e-1 -3.813468e-1 1.698278e0 4.952057e-2 1.868563e-1 2.586388e-2 7.608160e-2 -2.522156e-1
4.100000e9 -3.568432e-1 -3.778425e-1 1.691363e0 1.748134e-2 1.873218e-1 2.255794e-2 7.363488e-2 -2.542709e-1
4.110000e9 -3.638266e-1 -3.744491e-1 1.687354e0 -1.640660e-2 1.877803e-1 1.897732e-2 7.128661e-2 -2.566882e-1
4.120000e9 -3.703099e-1 -3.707449e-1 1.680816e0 -5.009421e-2 1.881684e-1 1.549588e-2 6.889659e-2 -2.588664e-1
4.130000e9 -3.764113e-1 -3.668399e-1 1.673621e0 -8.214798e-2 1.885836e-1 1.206761e-2 6.632277e-2 -2.610762e-1
4.140000e9 -3.824828e-1 -3.628801e-1 1.666581e0 -1.132087e-1 1.890119e-1 8.626714e-3 6.356936e-2 -2.634095e-1
4.150000e9 -3.891007e-1 -3.590276e-1 1.659304e0 -1.459075e-1 1.893264e-1 5.094912e-3 6.080268e-2 -2.657890e-1
4.160000e9 -3.948217e-1 -3.544751e-1 1.650675e0 -1.772848e-1 1.892793e-1 1.766301e-3 5.775395e-2 -2.677418e-1
4.170000e9 -4.008545e-1 -3.503946e-1 1.642313e0 -2.089878e-1 1.896126e-1 -1.603634e-3 5.477859e-2 -2.697964e-1
4.180000e9 -4.070121e-1 -3.461528e-1 1.633772e0 -2.409499e-1 1.897828e-1 -5.167942e-3 5.170946e-2 -2.718932e-1
4.190000e9 -4.130526e-1 -3.414778e-1 1.624006e0 -2.727539e-1 1.897459e-1 -8.781928e-3 4.861502e-2 -2.738696e-1
4.200000e9 -4.187209e-1 -3.364648e-1 1.611373e0 -3.035820e-1 1.899731e-1 -1.203931e-2 4.580042e-2 -2.754950e-1
4.210000e9 -4.241007e-1 -3.313572e-1 1.601929e0 -3.318136e-1 1.896329e-1 -1.554842e-2 4.311897e-2 -2.773832e-1
4.220000e9 -4.301212e-1 -3.262449e-1 1.591448e0 -3.631041e-1 1.896636e-1 -1.942883e-2 3.974112e-2 -2.791688e-1
4.230000e9 -4.359825e-1 -3.210535e-1 1.579391e0 -3.937684e-1 1.896216e-1 -2.300407e-2 3.643832e-2 -2.808935e-1
4.240000e9 -4.413988e-1 -3.158264e-1 1.566840e0 -4.228815e-1 1.894020e-1 -2.628667e-2 3.327364e-2 -2.824995e-1
4.250000e9 -4.466093e-1 -3.106463e-1 1.556336e0 -4.523938e-1 1.891943e-1 -2.999737e-2 2.959583e-2 -2.837450e-1
4.260000e9 -4.517222e-1 -3.050833e-1 1.541755e0 -4.796238e-1 1.887355e-1 -3.334393e-2 2.651569e-2 -2.851173e-1
4.270000e9 -4.566986e-1 -2.993850e-1 1.528258e0 -5.074554e-1 1.884113e-1 -3.681132e-2 2.316027e-2 -2.864915e-1
4.280000e9 -4.617441e-1 -2.934874e-1 1.514602e0 -5.363412e-1 1.879774e-1 -4.039459e-2 1.964762e-2 -2.878939e-1
4.290000e9 -4.668431e-1 -2.874735e-1 1.500302e0 -5.652766e-1 1.873651e-1 -4.397687e-2 1.606406e-2 -2.892473e-1
4.300000e9 -4.717816e-1 -2.815905e-1 1.485725e0 -5.918600e-1 1.866872e-1 -4.734263e-2 1.247292e-2 -2.903774e-1
4.310000e9 -4.758422e-1 -2.754520e-1 1.470602e0 -6.172953e-1 1.860198e-1 -5.086661e-2 8.884900e-3 -2.913429e-1
4.320000e9 -4.803240e-1 -2.686179e-1 1.452993e0 -6.463167e-1 1.851210e-1 -5.429942e-2 4.906539e-3 -2.919104e-1
4.330000e9 -4.849410e-1 -2.621879e-1 1.436032e0 -6.729404e-1 1.843189e-1 -5.779822e-2 1.182852e-3 -2.926686e-1
4.340000e9 -4.893997e-1 -2.562874e-1 1.420870e0 -6.970893e-1 1.835981e-1 -6.130815e-2 -2.270622e-3 -2.936744e-1
4.350000e9 -4.933314e-1 -2.500552e-1 1.406283e0 -7.245024e-1 1.826199e-1 -6.454599e-2 -6.005169e-3 -2.943823e-1
4.360000e9 -4.971654e-1 -2.432674e-1 1.386727e0 -7.482403e-1 1.813626e-1 -6.775205e-2 -9.826725e-3 -2.949071e-1
4.370000e9 -5.012819e-1 -2.365460e-1 1.369942e0 -7.750519e-1 1.804732e-1 -7.125080e-2 -1.362175e-2 -2.955499e-1
4.380000e9 -5.051864e-1 -2.298969e-1 1.352516e0 -8.000514e-1 1.795802e-1 -7.481643e-2 -1.744094e-2 -2.961315e-1
4.390000e9 -5.086961e-1 -2.231973e-1 1.333614e0 -8.226724e-1 1.784783e-1 -7.829749e-2 -2.123995e-2 -2.965574e-1
4.400000e9 -5.119482e-1 -2.161439e-1 1.314684e0 -8.468301e-1 1.771237e-1 -8.162694e-2 -2.490729e-2 -2.968181e-1
4.410000e9 -5.153822e-1 -2.087760e-1 1.293583e0 -8.696160e-1 1.757839e-1 -8.486817e-2 -2.847568e-2 -2.970509e-1
4.420000e9 -5.186173e-1 -2.014746e-1 1.273909e0 -8.935878e-1 1.743701e-1 -8.826345e-2 -3.217246e-2 -2.971389e-1
4.430000e9 -5.213829e-1 -1.940997e-1 1.252730e0 -9.166550e-1 1.729180e-1 -9.165494e-2 -3.588588e-2 -2.968822e-1
4.440000e9 -5.238888e-1 -1.866872e-1 1.230293e0 -9.386089e-1 1.714811e-1 -9.499036e-2 -3.970959e-2 -2.964481e-1
4.450000e9 -5.268445e-1 -1.794076e-1 1.209924e0 -9.613344e-1 1.701271e-1 -9.832112e-2 -4.398956e-2 -2.963442e-1
4.460000e9 -5.292224e-1 -1.720938e-1 1.186806e0 -9.819781e-1 1.686242e-1 -1.016234e-1 -4.706914e-2 -2.960774e-1
4.470000e9 -5.316763e-1 -1.646351e-1 1.166192e0 -1.003228e0 1.669847e-1 -1.049315e-1 -5.083231e-2 -2.957310e-1
4.480000e9 -5.339546e-1 -1.570767e-1 1.145471e0 -1.024232e0 1.650862e-1 -1.082423e-1 -5.468542e-2 -2.951501e-1
4.490000e9 -5.359362e-1 -1.494462e-1 1.123605e0 -1.044239e0 1.630562e-1 -1.115601e-1 -5.842095e-2 -2.944544e-1
4.500000e9 -5.376472e-1 -1.417337e-1 1.101139e0 -1.062712e0 1.612739e-1 -1.149143e-1 -6.225123e-2 -2.939991e-1
4.510000e9 -5.395408e-1 -1.345306e-1 1.078525e0 -1.084127e0 1.592258e-1 -1.175847e-1 -6.607429e-2 -2.929654e-1
4.520000e9 -5.408955e-1 -1.269575e-1 1.055407e0 -1.101407e0 1.574881e-1 -1.208522e-1 -6.984529e-2 -2.923201e-1
4.530000e9 -5.418773e-1 -1.193059e-1 1.031066e0 -1.118793e0 1.556550e-1 -1.240576e-1 -7.363163e-2 -2.913530e-1
4.540000e9 -5.427664e-1 -1.116109e-1 1.005833e0 -1.137871e0 1.536754e-1 -1.270646e-1 -7.739764e-2 -2.899384e-1
4.550000e9 -5.439486e-1 -1.036257e-1 9.813067e-1 -1.157641e0 1.518173e-1 -1.302819e-1 -8.106937e-2 -2.885350e-1
4.560000e9 -5.443436e-1 -9.617314e-2 9.574232e-1 -1.173853e0 1.490993e-1 -1.329727e-1 -8.458667e-2 -2.872191e-1
4.570000e9 -5.451559e-1 -8.838913e-2 9.340653e-1 -1.190863e0 1.467865e-1 -1.360236e-1 -8.841977e-2 -2.858467e-1
4.580000e9 -5.456290e-1 -8.049668e-2 9.100447e-1 -1.207777e0 1.445546e-1 -1.391930e-1 -9.220264e-2 -2.844827e-1
4.590000e9 -5.455505e-1 -7.261368e-2 8.845464e-1 -1.223851e0 1.422271e-1 -1.423102e-1 -9.580224e-2 -2.830335e-1
4.600000e9 -5.452532e-1 -6.471864e-2 8.571279e-1 -1.238535e0 1.397721e-1 -1.452864e-1 -9.930373e-2 -2.812219e-1
4.610000e9 -5.454943e-1 -5.677275e-2 8.299751e-1 -1.254407e0 1.374683e-1 -1.484639e-1 -1.032043e-1 -2.794770e-1
4.620000e9 -5.452369e-1 -4.839211e-2 8.019245e-1 -1.269569e0 1.345043e-1 -1.512936e-1 -1.062074e-1 -2.777652e-1
4.630000e9 -5.448477e-1 -4.011540e-2 7.742712e-1 -1.283002e0 1.316729e-1 -1.540878e-1 -1.092859e-1 -2.760361e-1
4.640000e9 -5.444539e-1 -3.213361e-2 7.478018e-1 -1.295316e0 1.290354e-1 -1.569274e-1 -1.126320e-1 -2.743091e-1
4.650000e9 -5.439092e-1 -2.433199e-2 7.226498e-1 -1.308671e0 1.259351e-1 -1.596058e-1 -1.156555e-1 -2.727600e-1
4.660000e9 -5.429513e-1 -1.606163e-2 6.935400e-1 -1.322134e0 1.232309e-1 -1.624762e-1 -1.191593e-1 -2.703726e-1
4.670000e9 -5.416213e-1 -8.080966e-3 6.645189e-1 -1.333713e0 1.202067e-1 -1.650164e-1 -1.220780e-1 -2.682643e-1
4.680000e9 -5.401870e-1 -3.960368e-4 6.358672e-1 -1.345416e0 1.171385e-1 -1.675112e-1 -1.250092e-1 -2.660453e-1
4.690000e9 -5.387510e-1 7.085010e-3 6.077407e-1 -1.357208e0 1.141874e-1 -1.700670e-1 -1.280800e-1 -2.636832e-1
4.700000e9 -5.372588e-1 1.452476e-2 5.803281e-1 -1.366971e0 1.114122e-1 -1.726007e-1 -1.309870e-1 -2.615618e-1
4.710000e9 -5.356514e-1 2.227533e-2 5.514484e-1 -1.376679e0 1.079265e-1 -1.755750e-1 -1.337318e-1 -2.588219e-1
4.720000e9 -5.330590e-1 2.975764e-2 5.210631e-1 -1.384749e0 1.047135e-1 -1.779512e-1 -1.365392e-1 -2.563072e-1
4.730000e9 -5.307059e-1 3.693596e-2 4.920170e-1 -1.393373e0 1.014911e-1 -1.800045e-1 -1.394031e-1 -2.538750e-1
4.740000e9 -5.287922e-1 4.406011e-2 4.640723e-1 -1.402521e0 9.808678e-2 -1.820772e-1 -1.421753e-1 -2.513271e-1
4.750000e9 -5.264696e-1 5.160311e-2 4.340436e-1 -1.409686e0 9.442774e-2 -1.845881e-1 -1.445526e-1 -2.484291e-1
4.760000e9 -5.238570e-1 5.885679e-2 4.039707e-1 -1.417288e0 9.131010e-2 -1.867899e-1 -1.473057e-1 -2.460015e-1
4.770000e9 -5.205505e-1 6.633776e-2 3.744828e-1 -1.425601e0 8.778083e-2 -1.889958e-1 -1.495884e-1 -2.429598e-1
4.780000e9 -5.172874e-1 7.368258e-2 3.456092e-1 -1.431496e0 8.396819e-2 -1.911524e-1 -1.516773e-1 -2.400965e-1
4.790000e9 -5.142890e-1 8.079586e-2 3.169002e-1 -1.435174e0 8.015464e-2 -1.932658e-1 -1.538080e-1 -2.375082e-1
4.800000e9 -5.112224e-1 8.784736e-2 2.871197e-1 -1.440153e0 7.676696e-2 -1.954180e-1 -1.561005e-1 -2.345888e-1
4.810000e9 -5.077490e-1 9.456127e-2 2.572668e-1 -1.444530e0 7.289719e-2 -1.972963e-1 -1.584596e-1 -2.316311e-1
4.820000e9 -5.042515e-1 1.014828e-1 2.262018e-1 -1.448108e0 6.945885e-2 -1.991789e-1 -1.604730e-1 -2.287839e-1
4.830000e9 -5.003206e-1 1.083093e-1 1.947882e-1 -1.450524e0 6.570803e-2 -2.010124e-1 -1.621078e-1 -2.256536e-1
4.840000e9 -4.961437e-1 1.149295e-1 1.642625e-1 -1.453182e0 6.153245e-2 -2.026738e-1 -1.636251e-1 -2.222237e-1
4.850000e9 -4.925037e-1 1.214946e-1 1.361338e-1 -1.459312e0 5.746272e-2 -2.040205e-1 -1.656344e-1 -2.188055e-1
4.860000e9 -4.884757e-1 1.278453e-1 1.044625e-1 -1.460688e0 5.348415e-2 -2.057435e-1 -1.673358e-1 -2.156954e-1
4.870000e9 -4.838674e-1 1.338238e-1 7.248934e-2 -1.460992e0 4.926537e-2 -2.071759e-1 -1.688324e-1 -2.123301e-1
4.880000e9 -4.790017e-1 1.396189e-1 4.089432e-2 -1.460590e0 4.509084e-2 -2.084661e-1 -1.701208e-1 -2.091588e-1
4.890000e9 -4.742332e-1 1.454132e-1 1.005479e-2 -1.459876e0 4.100079e-2 -2.097786e-1 -1.712708e-1 -2.061072e-1
4.900000e9 -4.699463e-1 1.513711e-1 -1.998011e-2 -1.459248e0 3.678720e-2 -2.112763e-1 -1.723628e-1 -2.025758e-1
4.910000e9 -4.642666e-1 1.571718e-1 -5.311560e-2 -1.454772e0 3.280231e-2 -2.124882e-1 -1.731973e-1 -1.994207e-1
4.920000e9 -4.590438e-1 1.625658e-1 -8.409970e-2 -1.450602e0 2.880861e-2 -2.135006e-1 -1.742709e-1 -1.964419e-1
4.930000e9 -4.538342e-1 1.680943e-1 -1.150351e-1 -1.447944e0 2.454475e-2 -2.145735e-1 -1.753533e-1 -1.932240e-1
4.940000e9 -4.484882e-1 1.738018e-1 -1.463321e-1 -1.445868e0 2.003466e-2 -2.156779e-1 -1.763174e-1 -1.898443e-1
4.950000e9 -4.432111e-1 1.792612e-1 -1.764958e-1 -1.441436e0 1.561583e-2 -2.165165e-1 -1.772096e-1 -1.868666e-1
4.960000e9 -4.374354e-1 1.842105e-1 -2.078837e-1 -1.437542e0 1.123395e-2 -2.173592e-1 -1.779739e-1 -1.832740e-1
4.970000e9 -4.311656e-1 1.887066e-1 -2.393192e-1 -1.429307e0 6.583039e-3 -2.179524e-1 -1.784090e-1 -1.802145e-1
4.980000e9 -4.253953e-1 1.932054e-1 -2.689862e-1 -1.421420e0 1.940364e-3 -2.185194e-1 -1.790060e-1 -1.772598e-1
4.990000e9 -4.201791e-1 1.978790e-1 -2.978398e-1 -1.415088e0 -2.638867e-3 -2.190654e-1 -1.796099e-1 -1.741927e-1
5.000000e9 -4.146652e-1 2.025269e-1 -3.293259e-1 -1.407759e0 -7.306930e-3 -2.193521e-1 -1.794433e-1 -1.711010e-1
5.010000e9 -4.089045e-1 2.059633e-1 -3.590634e-1 -1.398879e0 -1.159548e-2 -2.190337e-1 -1.797860e-1 -1.683102e-1
5.020000e9 -4.032689e-1 2.099896e-1 -3.893482e-1 -1.389366e0 -1.626932e-2 -2.196155e-1 -1.799855e-1 -1.652662e-1
5.030000e9 -3.975300e-1 2.139864e-1 -4.195684e-1 -1.379812e0 -2.099068e-2 -2.200208e-1 -1.800067e-1 -1.621545e-1
5.040000e9 -3.915193e-1 2.176323e-1 -4.495025e-1 -1.369865e0 -2.569150e-2 -2.198876e-1 -1.797176e-1 -1.591304e-1
5.050000e9 -3.850851e-1 2.208894e-1 -4.792473e-1 -1.358191e0 -3.063300e-2 -2.195455e-1 -1.788667e-1 -1.563298e-1
5.060000e9 -3.788211e-1 2.242506e-1 -5.086415e-1 -1.345726e0 -3.534138e-2 -2.193991e-1 -1.784690e-1 -1.534670e-1
5.070000e9 -3.721695e-1 2.272683e-1 -5.394813e-1 -1.332961e0 -4.010883e-2 -2.189553e-1 -1.778319e-1 -1.503486e-1
5.080000e9 -3.657326e-1 2.299060e-1 -5.677816e-1 -1.320537e0 -4.486323e-2 -2.183846e-1 -1.772864e-1 -1.472516e-1
5.090000e9 -3.596090e-1 2.323732e-1 -5.933809e-1 -1.307416e0 -4.944658e-2 -2.177723e-1 -1.769223e-1 -1.444047e-1
5.100000e9 -3.533837e-1 2.350775e-1 -6.198192e-1 -1.290537e0 -5.361040e-2 -2.171235e-1 -1.765785e-1 -1.420311e-1
5.110000e9 -3.467366e-1 2.382626e-1 -6.496899e-1 -1.279453e0 -5.873223e-2 -2.167006e-1 -1.757441e-1 -1.382622e-1
5.120000e9 -3.407845e-1 2.405341e-1 -6.766127e-1 -1.261899e0 -6.363116e-2 -2.161228e-1 -1.748704e-1 -1.352727e-1
5.130000e9 -3.347833e-1 2.425112e-1 -7.032585e-1 -1.244591e0 -6.844134e-2 -2.149954e-1 -1.738889e-1 -1.326544e-1
5.140000e9 -3.285240e-1 2.443695e-1 -7.306902e-1 -1.228607e0 -7.314548e-2 -2.134465e-1 -1.729340e-1 -1.301506e-1
5.150000e9 -3.223755e-1 2.458729e-1 -7.578622e-1 -1.209543e0 -7.761514e-2 -2.121400e-1 -1.723684e-1 -1.276374e-1
5.160000e9 -3.163343e-1 2.473733e-1 -7.828210e-1 -1.190840e0 -8.227632e-2 -2.106034e-1 -1.713108e-1 -1.255665e-1
5.170000e9 -3.097479e-1 2.489647e-1 -8.091270e-1 -1.169750e0 -8.697676e-2 -2.092025e-1 -1.703464e-1 -1.232196e-1
5.180000e9 -3.035415e-1 2.502403e-1 -8.348501e-1 -1.149464e0 -9.159947e-2 -2.076941e-1 -1.693582e-1 -1.207578e-1
5.190000e9 -2.975603e-1 2.511639e-1 -8.599535e-1 -1.130357e0 -9.625081e-2 -2.060416e-1 -1.682394e-1 -1.183769e-1
5.200000e9 -2.905475e-1 2.519863e-1 -8.860711e-1 -1.109804e0 -1.012825e-1 -2.043940e-1 -1.668907e-1 -1.163246e-1
5.210000e9 -2.846144e-1 2.524767e-1 -9.080266e-1 -1.086813e0 -1.057568e-1 -2.021968e-1 -1.654822e-1 -1.147424e-1
5.220000e9 -2.783629e-1 2.528457e-1 -9.305725e-1 -1.065581e0 -1.102701e-1 -2.001396e-1 -1.642580e-1 -1.129300e-1
5.230000e9 -2.718760e-1 2.533014e-1 -9.541152e-1 -1.042777e0 -1.149286e-1 -1.981137e-1 -1.629112e-1 -1.112891e-1
5.240000e9 -2.653594e-1 2.535778e-1 -9.777253e-1 -1.018502e0 -1.195938e-1 -1.958084e-1 -1.613512e-1 -1.098228e-1
5.250000e9 -2.591543e-1 2.529569e-1 -9.994459e-1 -9.964157e-1 -1.238648e-1 -1.927316e-1 -1.596539e-1 -1.080965e-1
5.260000e9 -2.531657e-1 2.533303e-1 -1.020589e0 -9.720760e-1 -1.280341e-1 -1.906163e-1 -1.584070e-1 -1.058997e-1
5.270000e9 -2.476355e-1 2.530012e-1 -1.041226e0 -9.467509e-1 -1.322351e-1 -1.884140e-1 -1.568221e-1 -1.041973e-1
5.280000e9 -2.420343e-1 2.524867e-1 -1.061436e0 -9.222715e-1 -1.366746e-1 -1.857946e-1 -1.550112e-1 -1.026391e-1
5.290000e9 -2.363821e-1 2.519800e-1 -1.080459e0 -8.978071e-1 -1.412805e-1 -1.828798e-1 -1.533487e-1 -1.010689e-1
5.300000e9 -2.312662e-1 2.513882e-1 -1.096447e0 -8.699613e-1 -1.457384e-1 -1.802697e-1 -1.524959e-1 -9.948719e-2
5.310000e9 -2.255793e-1 2.509469e-1 -1.118039e0 -8.432645e-1 -1.498011e-1 -1.768373e-1 -1.511428e-1 -9.845320e-2
5.320000e9 -2.204140e-1 2.499850e-1 -1.135664e0 -8.173816e-1 -1.537376e-1 -1.734678e-1 -1.497133e-1 -9.713103e-2
5.330000e9 -2.153766e-1 2.489245e-1 -1.151992e0 -7.898938e-1 -1.577307e-1 -1.702555e-1 -1.483444e-1 -9.578881e-2
5.340000e9 -2.102130e-1 2.479100e-1 -1.168141e0 -7.607720e-1 -1.617625e-1 -1.671190e-1 -1.470407e-1 -9.465366e-2
5.350000e9 -2.048106e-1 2.468319e-1 -1.183886e0 -7.325111e-1 -1.655980e-1 -1.638182e-1 -1.456718e-1 -9.391211e-2
5.360000e9 -1.994259e-1 2.450064e-1 -1.198762e0 -7.019147e-1 -1.696393e-1 -1.598347e-1 -1.448070e-1 -9.352222e-2
5.370000e9 -1.942487e-1 2.438192e-1 -1.214847e0 -6.723327e-1 -1.735704e-1 -1.559231e-1 -1.433709e-1 -9.316690e-2
5.380000e9 -1.889494e-1 2.424117e-1 -1.229188e0 -6.430558e-1 -1.773511e-1 -1.521957e-1 -1.419900e-1 -9.258506e-2
5.390000e9 -1.838229e-1 2.406020e-1 -1.241242e0 -6.137330e-1 -1.809274e-1 -1.485753e-1 -1.408089e-1 -9.181084e-2
5.400000e9 -1.797580e-1 2.389209e-1 -1.252907e0 -5.841590e-1 -1.842142e-1 -1.447985e-1 -1.395306e-1 -9.123622e-2
5.410000e9 -1.744981e-1 2.369418e-1 -1.264299e0 -5.529750e-1 -1.879097e-1 -1.404373e-1 -1.383496e-1 -9.091404e-2
5.420000e9 -1.701768e-1 2.351944e-1 -1.277571e0 -5.231486e-1 -1.909125e-1 -1.363116e-1 -1.369300e-1 -9.028694e-2
5.430000e9 -1.660822e-1 2.334873e-1 -1.287493e0 -4.925089e-1 -1.940719e-1 -1.320921e-1 -1.356395e-1 -8.989755e-2
5.440000e9 -1.619851e-1 2.316470e-1 -1.293981e0 -4.605178e-1 -1.974789e-1 -1.276663e-1 -1.346521e-1 -8.987244e-2
5.450000e9 -1.581213e-1 2.295317e-1 -1.302241e0 -4.277866e-1 -2.004900e-1 -1.232055e-1 -1.338804e-1 -8.995215e-2
5.460000e9 -1.548124e-1 2.273679e-1 -1.311039e0 -3.970690e-1 -2.029627e-1 -1.186156e-1 -1.329798e-1 -8.942809e-2
5.470000e9 -1.506623e-1 2.252442e-1 -1.318168e0 -3.644416e-1 -2.059496e-1 -1.140561e-1 -1.320019e-1 -8.937217e-2
5.480000e9 -1.467177e-1 2.231718e-1 -1.324624e0 -3.325097e-1 -2.088944e-1 -1.095416e-1 -1.307686e-1 -8.943917e-2
5.490000e9 -1.432494e-1 2.211107e-1 -1.330185e0 -3.015699e-1 -2.116504e-1 -1.050280e-1 -1.294066e-1 -8.945664e-2
5.500000e9 -1.397690e-1 2.189247e-1 -1.333191e0 -2.697230e-1 -2.144746e-1 -1.003736e-1 -1.283794e-1 -8.939273e-2
5.510000e9 -1.370988e-1 2.161553e-1 -1.335470e0 -2.369991e-1 -2.166626e-1 -9.530579e-2 -1.276213e-1 -8.942559e-2
5.520000e9 -1.335989e-1 2.136243e-1 -1.339612e0 -2.046195e-1 -2.190737e-1 -9.014462e-2 -1.266199e-1 -8.941077e-2
5.530000e9 -1.300856e-1 2.112941e-1 -1.342505e0 -1.727520e-1 -2.213701e-1 -8.497560e-2 -1.257097e-1 -8.933934e-2
5.540000e9 -1.267384e-1 2.090876e-1 -1.343743e0 -1.408439e-1 -2.234912e-1 -7.984158e-2 -1.249088e-1 -8.916449e-2
5.550000e9 -1.231198e-1 2.068351e-1 -1.345538e0 -1.073470e-1 -2.256477e-1 -7.471359e-2 -1.239217e-1 -8.885994e-2
5.560000e9 -1.205313e-1 2.046866e-1 -1.344791e0 -7.432963e-2 -2.272246e-1 -6.962946e-2 -1.235478e-1 -8.933523e-2
5.570000e9 -1.181919e-1 2.024428e-1 -1.342356e0 -4.248832e-2 -2.287021e-1 -6.437539e-2 -1.231751e-1 -8.934521e-2
5.580000e9 -1.158242e-1 2.002473e-1 -1.339526e0 -1.079974e-2 -2.302963e-1 -5.889269e-2 -1.227421e-1 -8.938606e-2
5.590000e9 -1.132834e-1 1.981816e-1 -1.337225e0 2.111110e-2 -2.318098e-1 -5.331511e-2 -1.222729e-1 -8.959763e-2
5.600000e9 -1.105446e-1 1.962717e-1 -1.336079e0 5.294852e-2 -2.326532e-1 -4.800502e-2 -1.218231e-1 -8.975079e-2
5.610000e9 -1.083703e-1 1.943141e-1 -1.330454e0 8.456868e-2 -2.339515e-1 -4.294948e-2 -1.215995e-1 -8.944636e-2
5.620000e9 -1.059917e-1 1.922681e-1 -1.324474e0 1.154275e-1 -2.350518e-1 -3.729405e-2 -1.210961e-1 -8.967831e-2
5.630000e9 -1.034228e-1 1.900972e-1 -1.318329e0 1.473339e-1 -2.360146e-1 -3.179230e-2 -1.206471e-1 -8.984412e-2
5.640000e9 -1.008634e-1 1.877132e-1 -1.311650e0 1.804762e-1 -2.367438e-1 -2.645645e-2 -1.205349e-1 -8.991018e-2
5.650000e9 -9.869848e-2 1.850052e-1 -1.303665e0 2.133577e-1 -2.369176e-1 -2.058113e-2 -1.210680e-1 -9.039155e-2
5.660000e9 -9.591828e-2 1.833169e-1 -1.297780e0 2.414904e-1 -2.375578e-1 -1.497557e-2 -1.208757e-1 -9.034975e-2
5.670000e9 -9.394217e-2 1.815438e-1 -1.287582e0 2.730957e-1 -2.380484e-1 -9.508935e-3 -1.211441e-1 -9.037967e-2
5.680000e9 -9.172136e-2 1.797014e-1 -1.276621e0 3.029689e-1 -2.382711e-1 -3.882847e-3 -1.214351e-1 -9.023693e-2
5.690000e9 -8.908871e-2 1.776865e-1 -1.266045e0 3.311147e-1 -2.382829e-1 1.882931e-3 -1.215802e-1 -8.997782e-2
5.700000e9 -8.677211e-2 1.753471e-1 -1.254140e0 3.624567e-1 -2.383445e-1 7.464092e-3 -1.217314e-1 -8.991685e-2
5.710000e9 -8.553844e-2 1.737264e-1 -1.242590e0 3.934125e-1 -2.379379e-1 1.286651e-2 -1.221159e-1 -9.007708e-2
5.720000e9 -8.454947e-2 1.720170e-1 -1.228872e0 4.235916e-1 -2.373974e-1 1.858781e-2 -1.224432e-1 -9.030027e-2
5.730000e9 -8.311559e-2 1.700211e-1 -1.214347e0 4.537151e-1 -2.367207e-1 2.434342e-2 -1.228981e-1 -9.049069e-2
5.740000e9 -8.134008e-2 1.677362e-1 -1.199768e0 4.829352e-1 -2.359827e-1 3.010770e-2 -1.234296e-1 -9.053642e-2
5.750000e9 -8.010478e-2 1.654099e-1 -1.185453e0 5.087731e-1 -2.353120e-1 3.611497e-2 -1.237506e-1 -9.033439e-2
5.760000e9 -7.809735e-2 1.635958e-1 -1.169851e0 5.353245e-1 -2.339408e-1 4.149226e-2 -1.235438e-1 -8.985196e-2
5.770000e9 -7.589193e-2 1.621235e-1 -1.153711e0 5.631286e-1 -2.331597e-1 4.697728e-2 -1.236338e-1 -8.948781e-2
5.780000e9 -7.359391e-2 1.603796e-1 -1.136993e0 5.913381e-1 -2.325237e-1 5.255973e-2 -1.238151e-1 -8.931725e-2
5.790000e9 -7.154026e-2 1.584722e-1 -1.120023e0 6.183887e-1 -2.314593e-1 5.815908e-2 -1.240343e-1 -8.910997e-2
5.800000e9 -7.025233e-2 1.572442e-1 -1.103582e0 6.420481e-1 -2.292743e-1 6.361236e-2 -1.243428e-1 -8.831645e-2
5.810000e9 -6.811789e-2 1.557157e-1 -1.082832e0 6.679214e-1 -2.272971e-1 6.885089e-2 -1.250224e-1 -8.729487e-2
5.820000e9 -6.638330e-2 1.543631e-1 -1.062011e0 6.926983e-1 -2.253027e-1 7.446260e-2 -1.257148e-1 -8.639848e-2
5.830000e9 -6.479134e-2 1.528984e-1 -1.041987e0 7.163083e-1 -2.235074e-1 7.981516e-2 -1.260649e-1 -8.553401e-2
5.840000e9 -6.314723e-2 1.513351e-1 -1.022233e0 7.388946e-1 -2.217310e-1 8.488056e-2 -1.261931e-1 -8.475351e-2
5.850000e9 -6.127754e-2 1.499976e-1 -1.000838e0 7.606829e-1 -2.193468e-1 9.019090e-2 -1.267062e-1 -8.416988e-2
5.860000e9 -5.922576e-2 1.482777e-1 -9.787791e-1 7.856613e-1 -2.173845e-1 9.541828e-2 -1.272255e-1 -8.354758e-2
5.870000e9 -5.731634e-2 1.465124e-1 -9.564702e-1 8.091226e-1 -2.148972e-1 1.007698e-1 -1.278313e-1 -8.314177e-2
5.880000e9 -5.531648e-2 1.448281e-1 -9.339052e-1 8.319699e-1 -2.124194e-1 1.061756e-1 -1.283039e-1 -8.249722e-2
5.890000e9 -5.311259e-2 1.431760e-1 -9.102373e-1 8.537812e-1 -2.099478e-1 1.115366e-1 -1.286600e-1 -8.146925e-2
5.900000e9 -5.071542e-2 1.413256e-1 -8.839236e-1 8.727288e-1 -2.069505e-1 1.166705e-1 -1.291704e-1 -8.017578e-2
5.910000e9 -4.960039e-2 1.400496e-1 -8.621025e-1 8.919948e-1 -2.035873e-1 1.214301e-1 -1.288002e-1 -7.915302e-2
5.920000e9 -4.772987e-2 1.382589e-1 -8.360842e-1 9.110465e-1 -2.004636e-1 1.263857e-1 -1.289299e-1 -7.818401e-2
5.930000e9 -4.572504e-2 1.366391e-1 -8.102235e-1 9.298259e-1 -1.972254e-1 1.312693e-1 -1.291428e-1 -7.719858e-2
5.940000e9 -4.382002e-2 1.351788e-1 -7.845097e-1 9.482249e-1 -1.937612e-1 1.360810e-1 -1.293815e-1 -7.605619e-2
5.950000e9 -4.189593e-2 1.331378e-1 -7.546018e-1 9.656427e-1 -1.901693e-1 1.411116e-1 -1.299269e-1 -7.447976e-2
5.960000e9 -3.960960e-2 1.317414e-1 -7.294804e-1 9.808830e-1 -1.865044e-1 1.453014e-1 -1.295773e-1 -7.303395e-2
5.970000e9 -3.744957e-2 1.296025e-1 -7.008566e-1 9.961956e-1 -1.826252e-1 1.497703e-1 -1.297779e-1 -7.156392e-2
5.980000e9 -3.525525e-2 1.274988e-1 -6.728162e-1 1.011307e0 -1.785772e-1 1.542251e-1 -1.296379e-1 -7.025949e-2
5.990000e9 -3.295835e-2 1.256437e-1 -6.456299e-1 1.025329e0 -1.744742e-1 1.585355e-1 -1.290714e-1 -6.908389e-2
6.000000e9 -3.061401e-2 1.236791e-1 -6.158550e-1 1.036383e0 -1.704807e-1 1.627402e-1 -1.287365e-1 -6.765807e-2
