! agentee FDTD lna-rf
! ports IN AMP_IN AMP_OUT OUT
# Hz S RI R 50
1.000000e8 3.361133e-2 -1.908683e-1 NaN NaN 2.412583e-5 -3.859300e-6 NaN NaN
 9.445133e-1 1.361154e-1 NaN NaN -4.776887e-5 -5.234559e-6 NaN NaN
 2.582923e-5 -1.713922e-6 NaN NaN -7.834138e-1 4.746640e-2 NaN NaN
 3.180803e-5 7.215934e-5 NaN NaN 8.264818e-2 6.536395e-1 NaN NaN
1.100000e8 -3.258958e-3 -1.855835e-1 NaN NaN 2.835691e-5 -2.253226e-5 NaN NaN
 9.810369e-1 1.253446e-1 NaN NaN -5.547971e-5 3.212341e-5 NaN NaN
 3.079161e-5 -2.239795e-5 NaN NaN -8.470706e-1 1.459533e-1 NaN NaN
 4.136961e-5 3.151471e-5 NaN NaN 1.986744e-1 6.044072e-1 NaN NaN
1.200000e8 -3.074194e-2 -1.561901e-1 NaN NaN 1.977719e-5 -3.859348e-5 NaN NaN
 1.008127e0 9.044780e-2 NaN NaN -3.568576e-5 6.194717e-5 NaN NaN
 2.103780e-5 -4.031014e-5 NaN NaN -8.482501e-1 2.591648e-1 NaN NaN
 1.147485e-5 5.096127e-7 NaN NaN 2.551385e-1 5.357307e-1 NaN NaN
1.300000e8 -3.414976e-2 -1.191610e-1 NaN NaN 4.727905e-6 -4.357547e-5 NaN NaN
 1.011084e0 4.791491e-2 NaN NaN -4.201970e-6 6.625617e-5 NaN NaN
 3.751230e-6 -4.549849e-5 NaN NaN -7.973809e-1 3.478583e-1 NaN NaN
 -3.560899e-5 6.511666e-6 NaN NaN 2.618551e-1 4.863257e-1 NaN NaN
1.400000e8 -1.685456e-2 -9.462683e-2 NaN NaN -6.317671e-6 -3.669800e-5 NaN NaN
 9.932853e-1 1.789457e-2 NaN NaN 1.520581e-5 4.566533e-5 NaN NaN
 -8.874594e-6 -3.699163e-5 NaN NaN -7.253683e-1 3.912663e-1 NaN NaN
 -6.458972e-5 4.928177e-5 NaN NaN 2.488351e-1 4.766894e-1 NaN NaN
1.500000e8 4.689843e-3 -9.204367e-2 NaN NaN -5.997607e-6 -2.530991e-5 NaN NaN
 9.712005e-1 9.849365e-3 NaN NaN 7.926617e-6 1.872181e-5 NaN NaN
 -8.336693e-6 -2.336621e-5 NaN NaN -6.654362e-1 3.944366e-1 NaN NaN
 -5.358958e-5 1.013377e-4 NaN NaN 2.483485e-1 5.019017e-1 NaN NaN
1.600000e8 1.394017e-2 -1.053984e-1 NaN NaN 4.884211e-6 -1.967800e-5 NaN NaN
 9.613861e-1 1.775933e-2 NaN NaN -2.108754e-5 8.362960e-6 NaN NaN
 4.332373e-6 -1.645579e-5 NaN NaN -6.357291e-1 3.812260e-1 NaN NaN
 -9.955156e-6 1.285977e-4 NaN NaN 2.777897e-1 5.385836e-1 NaN NaN
1.700000e8 5.168176e-3 -1.194371e-1 NaN NaN 1.804617e-5 -2.576329e-5 NaN NaN
 9.695732e-1 2.635760e-2 NaN NaN -5.111020e-5 2.530211e-5 NaN NaN
 1.958267e-5 -2.304646e-5 NaN NaN -6.322834e-1 3.779325e-1 NaN NaN
 3.559461e-5 1.150431e-4 NaN NaN 3.328046e-1 5.610477e-1 NaN NaN
1.800000e8 -1.430833e-2 -1.209279e-1 NaN NaN 2.367058e-5 -4.108939e-5 NaN NaN
 9.884365e-1 2.240322e-2 NaN NaN -6.081342e-5 6.041875e-5 NaN NaN
 2.613862e-5 -4.028303e-5 NaN NaN -6.354413e-1 3.977853e-1 NaN NaN
 5.116039e-5 7.394772e-5 NaN NaN 3.936627e-1 5.565526e-1 NaN NaN
1.900000e8 -3.063038e-2 -1.071619e-1 NaN NaN 1.735663e-5 -5.660752e-5 NaN NaN
 1.004106e0 3.187446e-3 NaN NaN -4.368852e-5 9.159907e-5 NaN NaN
 1.890264e-5 -5.772743e-5 NaN NaN -6.245123e-1 4.353019e-1 NaN NaN
 2.654515e-5 3.832964e-5 NaN NaN 4.397183e-1 5.308038e-1 NaN NaN
2.000000e8 -3.354432e-2 -8.658110e-2 NaN NaN 3.160954e-6 -6.316634e-5 NaN NaN
 1.006323e0 -2.283994e-2 NaN NaN -1.253940e-5 9.986030e-5 NaN NaN
 2.592931e-6 -6.475920e-5 NaN NaN -5.909397e-1 4.727238e-1 NaN NaN
 -1.925892e-5 3.705666e-5 NaN NaN 4.623494e-1 5.015660e-1 NaN NaN
2.100000e8 -2.310844e-2 -7.173756e-2 NaN NaN -9.355781e-6 -5.796682e-5 NaN NaN
 9.951476e-1 -4.311803e-2 NaN NaN 1.000644e-5 8.297726e-5 NaN NaN
 -1.164064e-5 -5.819751e-5 NaN NaN -5.421526e-1 4.931377e-1 NaN NaN
 -5.199756e-5 7.369846e-5 NaN NaN 4.687032e-1 4.857318e-1 NaN NaN
2.200000e8 -8.554186e-3 -7.011171e-2 NaN NaN -1.192331e-5 -4.646986e-5 NaN NaN
 9.798177e-1 -5.016278e-2 NaN NaN 7.928970e-6 5.685424e-5 NaN NaN
 -1.427275e-5 -4.451050e-5 NaN NaN -4.948497e-1 4.913762e-1 NaN NaN
 -4.740815e-5 1.241757e-4 NaN NaN 4.750515e-1 4.886142e-1 NaN NaN
2.300000e8 -9.053692e-4 -7.948496e-2 NaN NaN -3.380988e-6 -3.845841e-5 NaN NaN
 9.713639e-1 -4.619558e-2 NaN NaN -1.671998e-5 4.380838e-5 NaN NaN
 -4.137510e-6 -3.503376e-5 NaN NaN -4.631368e-1 4.761084e-1 NaN NaN
 -8.654097e-6 1.547874e-4 NaN NaN 4.951158e-1 5.019229e-1 NaN NaN
2.400000e8 -5.245733e-3 -9.050417e-2 NaN NaN 9.583601e-6 -4.107592e-5 NaN NaN
 9.748715e-1 -4.057532e-2 NaN NaN -4.554723e-5 5.635672e-5 NaN NaN
 1.094148e-5 -3.789078e-5 NaN NaN -4.496483e-1 4.627228e-1 NaN NaN
 3.654229e-5 1.466495e-4 NaN NaN 5.313569e-1 5.107830e-1 NaN NaN
2.500000e8 -1.787695e-2 -9.377196e-2 NaN NaN 1.726743e-5 -5.380162e-5 NaN NaN
 9.866388e-1 -4.270337e-2 NaN NaN -5.735496e-5 8.830151e-5 NaN NaN
 1.979194e-5 -5.236232e-5 NaN NaN -4.451140e-1 4.625601e-1 NaN NaN
 5.613687e-5 1.089515e-4 NaN NaN 5.745739e-1 5.043137e-1 NaN NaN
2.600000e8 -2.967530e-2 -8.626245e-2 NaN NaN 1.387120e-5 -6.891756e-5 NaN NaN
 9.975375e-1 -5.560532e-2 NaN NaN -4.351372e-5 1.194883e-4 NaN NaN
 1.578895e-5 -6.947590e-5 NaN NaN -4.358141e-1 4.759268e-1 NaN NaN
 3.678087e-5 7.211402e-5 NaN NaN 6.112430e-1 4.824717e-1 NaN NaN
2.700000e8 -3.286683e-2 -7.285289e-2 NaN NaN 1.568536e-6 -7.707096e-5 NaN NaN
 9.997913e-1 -7.440039e-2 NaN NaN -1.401104e-5 1.305762e-4 NaN NaN
 1.553537e-6 -7.841214e-5 NaN NaN -4.132178e-1 4.931307e-1 NaN NaN
 -6.611547e-6 6.571300e-5 NaN NaN 6.329764e-1 4.550104e-1 NaN NaN
2.800000e8 -2.634593e-2 -6.224902e-2 NaN NaN -1.111735e-5 -7.392787e-5 NaN NaN
 9.922956e-1 -9.037919e-2 NaN NaN 1.002818e-5 1.169855e-4 NaN NaN
 -1.295190e-5 -7.426842e-5 NaN NaN -3.792036e-1 5.020653e-1 NaN NaN
 -4.188143e-5 9.696904e-5 NaN NaN 6.416296e-1 4.340214e-1 NaN NaN
2.900000e8 -1.588230e-2 -6.054519e-2 NaN NaN -1.541280e-5 -6.320446e-5 NaN NaN
 9.808232e-1 -9.744607e-2 NaN NaN 1.173617e-5 9.199296e-5 NaN NaN
 -1.763129e-5 -6.153015e-5 NaN NaN -3.438128e-1 4.966820e-1 NaN NaN
 -4.325187e-5 1.457751e-4 NaN NaN 6.470779e-1 4.256237e-1 NaN NaN
3.000000e8 -9.479484e-3 -6.719022e-2 NaN NaN -8.514236e-6 -5.396996e-5 NaN NaN
 9.733795e-1 -9.615333e-2 NaN NaN -9.390877e-6 7.690555e-5 NaN NaN
 -9.454595e-6 -5.073790e-5 NaN NaN -3.177117e-1 4.806103e-1 NaN NaN
 -9.862308e-6 1.797911e-4 NaN NaN 6.598107e-1 4.264215e-1 NaN NaN
3.100000e8 -1.162057e-2 -7.595844e-2 NaN NaN 4.477680e-6 -5.417669e-5 NaN NaN
 9.744480e-1 -9.272835e-2 NaN NaN -3.736643e-5 8.557243e-5 NaN NaN
 5.525329e-6 -5.093362e-5 NaN NaN -3.048846e-1 4.639109e-1 NaN NaN
 3.417679e-5 1.779571e-4 NaN NaN 6.837640e-1 4.266999e-1 NaN NaN
3.200000e8 -2.047255e-2 -7.973364e-2 NaN NaN 1.425177e-5 -6.504196e-5 NaN NaN
 9.821945e-1 -9.428793e-2 NaN NaN -5.150354e-5 1.145086e-4 NaN NaN
 1.656982e-5 -6.332936e-5 NaN NaN -3.004847e-1 4.557293e-1 NaN NaN
 5.753319e-5 1.453332e-4 NaN NaN 7.142179e-1 4.176345e-1 NaN NaN
3.300000e8 -2.965642e-2 -7.550191e-2 NaN NaN 1.392969e-5 -8.026925e-5 NaN NaN
 9.902390e-1 -1.038451e-1 NaN NaN -4.141325e-5 1.456961e-4 NaN NaN
 1.586595e-5 -8.053904e-5 NaN NaN -2.948819e-1 4.581824e-1 NaN NaN
 4.420707e-5 1.090968e-4 NaN NaN 7.417698e-1 3.972846e-1 NaN NaN
3.400000e8 -3.302922e-2 -6.614714e-2 NaN NaN 3.905930e-6 -9.060715e-5 NaN NaN
 9.924389e-1 -1.185149e-1 NaN NaN -1.431617e-5 1.598228e-4 NaN NaN
 4.046330e-6 -9.187477e-5 NaN NaN -2.806399e-1 4.655472e-1 NaN NaN
 4.905186e-6 9.873148e-5 NaN NaN 7.591740e-1 3.713866e-1 NaN NaN
3.500000e8 -2.898189e-2 -5.800018e-2 NaN NaN -8.523541e-6 -9.044716e-5 NaN NaN
 9.871863e-1 -1.319663e-1 NaN NaN 1.046313e-5 1.502208e-4 NaN NaN
 -1.031826e-5 -9.100220e-5 NaN NaN -2.574230e-1 4.688707e-1 NaN NaN
 -3.099276e-5 1.246405e-4 NaN NaN 7.661520e-1 3.488342e-1 NaN NaN
3.600000e8 -2.124147e-2 -5.612218e-2 NaN NaN -1.441794e-5 -8.176636e-5 NaN NaN
 9.782083e-1 -1.391387e-1 NaN NaN 1.562290e-5 1.274600e-4 NaN NaN
 -1.693466e-5 -8.043421e-5 NaN NaN -2.316499e-1 4.624226e-1 NaN NaN
 -3.701873e-5 1.708794e-4 NaN NaN 7.690524e-1 3.353524e-1 NaN NaN
3.700000e8 -1.584377e-2 -6.083973e-2 NaN NaN -9.561624e-6 -7.265206e-5 NaN NaN
 9.715400e-1 -1.397061e-1 NaN NaN -1.677857e-6 1.114504e-4 NaN NaN
 -1.115968e-5 -6.961428e-5 NaN NaN -2.115353e-1 4.474369e-1 NaN NaN
 -8.684813e-6 2.072041e-4 NaN NaN 7.759911e-1 3.298291e-1 NaN NaN
3.800000e8 -1.673238e-2 -6.788037e-2 NaN NaN 2.579120e-6 -7.150264e-5 NaN NaN
 9.711239e-1 -1.379400e-1 NaN NaN -2.800583e-5 1.169369e-4 NaN NaN
 2.794647e-6 -6.810788e-5 NaN NaN -2.012631e-1 4.307734e-1 NaN NaN
 3.379460e-5 2.111230e-4 NaN NaN 7.911382e-1 3.256227e-1 NaN NaN
3.900000e8 -2.316766e-2 -7.169362e-2 NaN NaN 1.338465e-5 -8.106161e-5 NaN NaN
 9.762203e-1 -1.393889e-1 NaN NaN -4.360983e-5 1.429581e-4 NaN NaN
 1.495991e-5 -7.884828e-5 NaN NaN -1.983692e-1 4.197897e-1 NaN NaN
 6.050050e-5 1.838215e-4 NaN NaN 8.121468e-1 3.155869e-1 NaN NaN
4.000000e8 -3.057278e-2 -6.940956e-2 NaN NaN 1.524536e-5 -9.652981e-5 NaN NaN
 9.822538e-1 -1.469213e-1 NaN NaN -3.676115e-5 1.738172e-4 NaN NaN
 1.670619e-5 -9.613688e-5 NaN NaN -1.959129e-1 4.172363e-1 NaN NaN
 5.339861e-5 1.488930e-4 NaN NaN 8.322737e-1 2.970770e-1 NaN NaN
4.100000e8 -3.399376e-2 -6.267063e-2 NaN NaN 6.939112e-6 -1.090520e-4 NaN NaN
 9.842732e-1 -1.588948e-1 NaN NaN -1.204902e-5 1.906540e-4 NaN NaN
 6.845040e-6 -1.097476e-4 NaN NaN -1.875917e-1 4.197072e-1 NaN NaN
 1.913450e-5 1.350585e-4 NaN NaN 8.453892e-1 2.734774e-1 NaN NaN
4.200000e8 -3.161407e-2 -5.618281e-2 NaN NaN -5.583132e-6 -1.120388e-4 NaN NaN
 9.804630e-1 -1.706058e-1 NaN NaN 1.322664e-5 1.850764e-4 NaN NaN
 -7.583755e-6 -1.122446e-4 NaN NaN -1.720496e-1 4.204616e-1 NaN NaN
 -1.610544e-5 1.553534e-4 NaN NaN 8.502038e-1 2.514456e-1 NaN NaN
4.300000e8 -2.583262e-2 -5.418842e-2 NaN NaN -1.350532e-5 -1.058105e-4 NaN NaN
 9.732209e-1 -1.778142e-1 NaN NaN 2.174022e-5 1.650081e-4 NaN NaN
 -1.642900e-5 -1.042614e-4 NaN NaN -1.534573e-1 4.143581e-1 NaN NaN
 -2.586001e-5 1.979562e-4 NaN NaN 8.508473e-1 2.360787e-1 NaN NaN
4.400000e8 -2.128420e-2 -5.750251e-2 NaN NaN -1.144102e-5 -9.729116e-5 NaN NaN
 9.671788e-1 -1.797055e-1 NaN NaN 8.616854e-6 1.486908e-4 NaN NaN
 -1.371386e-5 -9.393296e-5 NaN NaN -1.382165e-1 4.013409e-1 NaN NaN
 -2.495992e-6 2.352287e-4 NaN NaN 8.536489e-1 2.274902e-1 NaN NaN
4.500000e8 -2.142641e-2 -6.317639e-2 NaN NaN -1.230164e-6 -9.501490e-5 NaN NaN
 9.657918e-1 -1.792257e-1 NaN NaN -1.527525e-5 1.513617e-4 NaN NaN
 -1.817567e-6 -9.099489e-5 NaN NaN -1.303330e-1 3.861550e-1 NaN NaN
 3.773946e-5 2.439337e-4 NaN NaN 8.626022e-1 2.210757e-1 NaN NaN
4.600000e8 -2.619719e-2 -6.681846e-2 NaN NaN 9.438681e-6 -1.030371e-4 NaN NaN
 9.689981e-1 -1.807626e-1 NaN NaN -3.143348e-5 1.743306e-4 NaN NaN
 1.032851e-5 -9.986455e-5 NaN NaN -1.287633e-1 3.747341e-1 NaN NaN
 6.688239e-5 2.217697e-4 NaN NaN 8.767529e-1 2.110450e-1 NaN NaN
4.700000e8 -3.228545e-2 -6.576297e-2 NaN NaN 1.255098e-5 -1.180914e-4 NaN NaN
 9.734901e-1 -1.869794e-1 NaN NaN -2.718078e-5 2.042921e-4 NaN NaN
 1.363369e-5 -1.165700e-4 NaN NaN -1.284560e-1 3.699929e-1 NaN NaN
 6.549216e-5 1.886104e-4 NaN NaN 8.912061e-1 1.945487e-1 NaN NaN
4.800000e8 -3.565637e-2 -6.083747e-2 NaN NaN 5.462344e-6 -1.319808e-4 NaN NaN
 9.752372e-1 -1.970496e-1 NaN NaN -4.674923e-6 2.231721e-4 NaN NaN
 5.300620e-6 -1.316326e-4 NaN NaN -1.241234e-1 3.699988e-1 NaN NaN
 3.646364e-5 1.718721e-4 NaN NaN 9.008142e-1 1.734845e-1 NaN NaN
4.900000e8 -3.444261e-2 -5.557069e-2 NaN NaN -7.279233e-6 -1.374435e-4 NaN NaN
 9.723738e-1 -2.074482e-1 NaN NaN 2.092679e-5 2.212129e-4 NaN NaN
 -9.228088e-6 -1.368561e-4 NaN NaN -1.139351e-1 3.696417e-1 NaN NaN
 2.589343e-6 1.866425e-4 NaN NaN 9.038035e-1 1.528761e-1 NaN NaN
5.000000e8 -3.013572e-2 -5.353195e-2 NaN NaN -1.723451e-5 -1.332964e-4 NaN NaN
 9.663893e-1 -2.146099e-1 NaN NaN 3.261143e-5 2.038296e-4 NaN NaN
 -2.023078e-5 -1.311619e-4 NaN NaN -1.005649e-1 3.644154e-1 NaN NaN
 -1.024028e-5 2.250070e-4 NaN NaN 9.028165e-1 1.371723e-1 NaN NaN
5.100000e8 -2.632251e-2 -5.580321e-2 NaN NaN -1.810470e-5 -1.252133e-4 NaN NaN
 9.608659e-1 -2.174534e-1 NaN NaN 2.377992e-5 1.874323e-4 NaN NaN
 -2.068987e-5 -1.212669e-4 NaN NaN -8.902642e-2 3.535410e-1 NaN NaN
 8.240443e-6 2.622252e-4 NaN NaN 9.028049e-1 1.271769e-1 NaN NaN
5.200000e8 -2.602252e-2 -6.037309e-2 NaN NaN -1.018851e-5 -1.216268e-4 NaN NaN
 9.588195e-1 -2.179864e-1 NaN NaN 2.803191e-6 1.874186e-4 NaN NaN
 -1.124031e-5 -1.167986e-4 NaN NaN -8.300426e-2 3.402908e-1 NaN NaN
 4.565445e-5 2.748768e-4 NaN NaN 9.074359e-1 1.197127e-1 NaN NaN
5.300000e8 -2.960001e-2 -6.374463e-2 NaN NaN -1.111129e-7 -1.277063e-4 NaN NaN
 9.606148e-1 -2.197004e-1 NaN NaN -1.327392e-5 2.071166e-4 NaN NaN
 3.829826e-7 -1.234321e-4 NaN NaN -8.233815e-2 3.294548e-1 NaN NaN
 7.634885e-5 2.575924e-4 NaN NaN 9.166134e-1 1.100926e-1 NaN NaN
5.400000e8 -3.466737e-2 -6.348195e-2 NaN NaN 3.939052e-6 -1.417107e-4 NaN NaN
 9.638687e-1 -2.250280e-1 NaN NaN -1.114620e-5 2.356186e-4 NaN NaN
 4.896716e-6 -1.389134e-4 NaN NaN -8.335412e-2 3.238940e-1 NaN NaN
 8.000754e-5 2.265227e-4 NaN NaN 9.267837e-1 9.549980e-2 NaN NaN
5.500000e8 -3.792422e-2 -5.986528e-2 NaN NaN -1.964635e-6 -1.562839e-4 NaN NaN
 9.652863e-1 -2.336901e-1 NaN NaN 9.272504e-6 2.558878e-4 NaN NaN
 -1.937568e-6 -1.547193e-4 NaN NaN -8.164039e-2 3.226521e-1 NaN NaN
 5.610370e-5 2.073772e-4 NaN NaN 9.336456e-1 7.685449e-2 NaN NaN
5.600000e8 -3.754138e-2 -5.554162e-2 NaN NaN -1.474493e-5 -1.637169e-4 NaN NaN
 9.630410e-1 -2.430449e-1 NaN NaN 3.505344e-5 2.570996e-4 NaN NaN
 -1.634079e-5 -1.621566e-4 NaN NaN -7.517610e-2 3.218557e-1 NaN NaN
 2.392741e-5 2.167899e-4 NaN NaN 9.352232e-1 5.795071e-2 NaN NaN
5.700000e8 -3.437481e-2 -5.351619e-2 NaN NaN -2.656931e-5 -1.614032e-4 NaN NaN
 9.579862e-1 -2.500922e-1 NaN NaN 4.979053e-5 2.422718e-4 NaN NaN
 -2.928050e-5 -1.585419e-4 NaN NaN -6.560014e-2 3.176072e-1 NaN NaN
 8.325823e-6 2.505275e-4 NaN NaN 9.331283e-1 4.262850e-2 NaN NaN
5.800000e8 -3.120467e-2 -5.500214e-2 NaN NaN -3.044135e-5 -1.536213e-4 NaN NaN
 9.528963e-1 -2.536200e-1 NaN NaN 4.543785e-5 2.258078e-4 NaN NaN
 -3.295272e-5 -1.490234e-4 NaN NaN -5.683926e-2 3.087270e-1 NaN NaN
 2.171773e-5 2.869915e-4 NaN NaN 9.312330e-1 3.207611e-2 NaN NaN
5.900000e8 -3.065689e-2 -5.866772e-2 NaN NaN -2.513698e-5 -1.484197e-4 NaN NaN
 9.503924e-1 -2.549560e-1 NaN NaN 2.790484e-5 2.229160e-4 NaN NaN
 -2.628639e-5 -1.428053e-4 NaN NaN -5.220742e-2 2.974307e-1 NaN NaN
 5.548626e-5 3.031260e-4 NaN NaN 9.328308e-1 2.414599e-2 NaN NaN
6.000000e8 -3.336012e-2 -6.172353e-2 NaN NaN -1.598990e-5 -1.518658e-4 NaN NaN
 9.511033e-1 -2.568829e-1 NaN NaN 1.251137e-5 2.386687e-4 NaN NaN
 -1.558286e-5 -1.465717e-4 NaN NaN -5.209924e-2 2.875808e-1 NaN NaN
 8.665492e-5 2.909496e-4 NaN NaN 9.383613e-1 1.505312e-2 NaN NaN
6.100000e8 -3.761517e-2 -6.197016e-2 NaN NaN -1.101498e-5 -1.637729e-4 NaN NaN
 9.533350e-1 -2.615958e-1 NaN NaN 1.277517e-5 2.645736e-4 NaN NaN
 -9.943147e-6 -1.597988e-4 NaN NaN -5.386697e-2 2.818768e-1 NaN NaN
 9.464464e-5 2.629214e-4 NaN NaN 9.452693e-1 2.130063e-3 NaN NaN
6.200000e8 -4.071974e-2 -5.931856e-2 NaN NaN -1.518022e-5 -1.779223e-4 NaN NaN
 9.543920e-1 -2.691849e-1 NaN NaN 3.073366e-5 2.849686e-4 NaN NaN
 -1.477623e-5 -1.752223e-4 NaN NaN -5.384569e-2 2.800204e-1 NaN NaN
 7.596817e-5 2.425955e-4 NaN NaN 9.499769e-1 -1.435740e-2 NaN NaN
6.300000e8 -4.093370e-2 -5.574236e-2 NaN NaN -2.691847e-5 -1.865644e-4 NaN NaN
 9.525374e-1 -2.776824e-1 NaN NaN 5.572176e-5 2.884289e-4 NaN NaN
 -2.799188e-5 -1.840852e-4 NaN NaN -4.998232e-2 2.790916e-1 NaN NaN
 4.640533e-5 2.474837e-4 NaN NaN 9.504662e-1 -3.155817e-2 NaN NaN
6.400000e8 -3.866295e-2 -5.376932e-2 NaN NaN -3.932573e-5 -1.859486e-4 NaN NaN
 9.481744e-1 -2.845669e-1 NaN NaN 7.230119e-5 2.758914e-4 NaN NaN
 -4.157994e-5 -1.824031e-4 NaN NaN -4.318658e-2 2.757487e-1 NaN NaN
 2.926095e-5 2.765671e-4 NaN NaN 9.476223e-1 -4.618335e-2 NaN NaN
6.500000e8 -3.605623e-2 -5.465796e-2 NaN NaN -4.513781e-5 -1.789422e-4 NaN NaN
 9.434451e-1 -2.885814e-1 NaN NaN 7.145727e-5 2.597278e-4 NaN NaN
 -4.740379e-5 -1.737432e-4 NaN NaN -3.652352e-2 2.686068e-1 NaN NaN
 3.842645e-5 3.114260e-4 NaN NaN 9.444624e-1 -5.684655e-2 NaN NaN
6.600000e8 -3.538762e-2 -5.757534e-2 NaN NaN -4.190561e-5 -1.729117e-4 NaN NaN
 9.406181e-1 -2.905547e-1 NaN NaN 5.695386e-5 2.546156e-4 NaN NaN
 -4.299738e-5 -1.665726e-4 NaN NaN -3.293090e-2 2.591100e-1 NaN NaN
 6.861156e-5 3.298709e-4 NaN NaN 9.439023e-1 -6.494075e-2 NaN NaN
6.700000e8 -3.744218e-2 -6.029986e-2 NaN NaN -3.368332e-5 -1.744227e-4 NaN NaN
 9.404778e-1 -2.927008e-1 NaN NaN 4.237040e-5 2.669299e-4 NaN NaN
 -3.323445e-5 -1.681665e-4 NaN NaN -3.314665e-2 2.503638e-1 NaN NaN
 9.957380e-5 3.219378e-4 NaN NaN 9.467122e-1 -7.351045e-2 NaN NaN
6.800000e8 -4.104042e-2 -6.086377e-2 NaN NaN -2.806390e-5 -1.845696e-4 NaN NaN
 9.418505e-1 -2.969823e-1 NaN NaN 4.113502e-5 2.903186e-4 NaN NaN
 -2.676802e-5 -1.794535e-4 NaN NaN -3.529745e-2 2.448556e-1 NaN NaN
 1.109372e-4 2.967629e-4 NaN NaN 9.510912e-1 -8.501798e-2 NaN NaN
6.900000e8 -4.397241e-2 -5.893141e-2 NaN NaN -3.072555e-5 -1.982570e-4 NaN NaN
 9.425337e-1 -3.037357e-1 NaN NaN 5.686560e-5 3.105218e-4 NaN NaN
 -2.983009e-5 -1.944242e-4 NaN NaN -3.635166e-2 2.427309e-1 NaN NaN
 9.680128e-5 2.756594e-4 NaN NaN 9.540772e-1 -9.963683e-2 NaN NaN
7.000000e8 -4.461489e-2 -5.595593e-2 NaN NaN -4.140249e-5 -2.078985e-4 NaN NaN
 9.409084e-1 -3.115142e-1 NaN NaN 8.095771e-5 3.157799e-4 NaN NaN
 -4.180750e-5 -2.044836e-4 NaN NaN -3.431417e-2 2.418115e-1 NaN NaN
 6.971042e-5 2.765831e-4 NaN NaN 9.537029e-1 -1.152477e-1 NaN NaN
7.100000e8 -4.305475e-2 -5.405892e-2 NaN NaN -5.413300e-5 -2.088517e-4 NaN NaN
 9.370589e-1 -3.182033e-1 NaN NaN 9.900479e-5 3.052391e-4 NaN NaN
 -5.574341e-5 -2.046183e-4 NaN NaN -2.957702e-2 2.392519e-1 NaN NaN
 5.128031e-5 3.012792e-4 NaN NaN 9.503383e-1 -1.290517e-1 NaN NaN
7.200000e8 -4.094118e-2 -5.448958e-2 NaN NaN -6.156371e-5 -2.027018e-4 NaN NaN
 9.326273e-1 -3.225562e-1 NaN NaN 1.012638e-4 2.893564e-4 NaN NaN
 -6.337512e-5 -1.969414e-4 NaN NaN -2.451691e-2 2.335830e-1 NaN NaN
 5.646263e-5 3.343563e-4 NaN NaN 9.463177e-1 -1.395818e-1 NaN NaN
7.300000e8 -4.023544e-2 -5.678297e-2 NaN NaN -6.020540e-5 -1.960738e-4 NaN NaN
 9.295683e-1 -3.250336e-1 NaN NaN 8.956936e-5 2.821656e-4 NaN NaN
 -6.104344e-5 -1.891008e-4 NaN NaN -2.171131e-2 2.256809e-1 NaN NaN
 8.294814e-5 3.547144e-4 NaN NaN 9.441972e-1 -1.476741e-1 NaN NaN
7.400000e8 -4.180571e-2 -5.917711e-2 NaN NaN -5.288427e-5 -1.958623e-4 NaN NaN
 9.287490e-1 -3.273893e-1 NaN NaN 7.579201e-5 2.911173e-4 NaN NaN
 -5.224016e-5 -1.887661e-4 NaN NaN -2.210143e-2 2.180306e-1 NaN NaN
 1.132008e-4 3.508000e-4 NaN NaN 9.449412e-1 -1.557638e-1 NaN NaN
7.500000e8 -4.486743e-2 -5.992463e-2 NaN NaN -4.666497e-5 -2.043128e-4 NaN NaN
 9.293907e-1 -3.313648e-1 NaN NaN 7.310682e-5 3.118472e-4 NaN NaN
 -4.504084e-5 -1.981739e-4 NaN NaN -2.440293e-2 2.128876e-1 NaN NaN
 1.273386e-4 3.286822e-4 NaN NaN 9.473231e-1 -1.660860e-1 NaN NaN
7.600000e8 -4.761873e-2 -5.852934e-2 NaN NaN -4.776993e-5 -2.174675e-4 NaN NaN
 9.296996e-1 -3.374566e-1 NaN NaN 8.649265e-5 3.315419e-4 NaN NaN
 -4.630869e-5 -2.125910e-4 NaN NaN -2.611983e-2 2.106932e-1 NaN NaN
 1.174287e-4 3.073600e-4 NaN NaN 9.489035e-1 -1.791056e-1 NaN NaN
7.700000e8 -4.856649e-2 -5.603931e-2 NaN NaN -5.714858e-5 -2.280497e-4 NaN NaN
 9.281876e-1 -3.446231e-1 NaN NaN 1.093070e-4 3.383128e-4 NaN NaN
 -5.680864e-5 -2.237546e-4 NaN NaN -2.536564e-2 2.098499e-1 NaN NaN
 9.296205e-5 3.048851e-4 NaN NaN 9.478180e-1 -1.932751e-1 NaN NaN
7.800000e8 -4.757300e-2 -5.422978e-2 NaN NaN -6.984881e-5 -2.306887e-4 NaN NaN
 9.247149e-1 -3.510970e-1 NaN NaN 1.282785e-4 3.297269e-4 NaN NaN
 -7.071427e-5 -2.258106e-4 NaN NaN -2.216530e-2 2.079490e-1 NaN NaN
 7.370599e-5 3.254017e-4 NaN NaN 9.440721e-1 -2.062263e-1 NaN NaN
7.900000e8 -4.588967e-2 -5.430628e-2 NaN NaN -7.860365e-5 -2.257379e-4 NaN NaN
 9.205255e-1 -3.556759e-1 NaN NaN 1.331698e-4 3.143812e-4 NaN NaN
 -7.983782e-5 -2.194772e-4 NaN NaN -1.834290e-2 2.035139e-1 NaN NaN
 7.528640e-5 3.564387e-4 NaN NaN 9.394526e-1 -2.164862e-1 NaN NaN
8.000000e8 -4.520095e-2 -5.607537e-2 NaN NaN -7.903950e-5 -2.189758e-4 NaN NaN
 9.172963e-1 -3.585492e-1 NaN NaN 1.240821e-4 3.055198e-4 NaN NaN
 -7.950435e-5 -2.114633e-4 NaN NaN -1.614171e-2 1.970011e-1 NaN NaN
 9.804646e-5 3.782147e-4 NaN NaN 9.361825e-1 -2.244785e-1 NaN NaN
8.100000e8 -4.640832e-2 -5.814929e-2 NaN NaN -7.277557e-5 -2.174362e-4 NaN NaN
 9.159274e-1 -3.610963e-1 NaN NaN 1.111917e-4 3.114250e-4 NaN NaN
 -7.184719e-5 -2.096187e-4 NaN NaN -1.661201e-2 1.903850e-1 NaN NaN
 1.271217e-4 3.779826e-4 NaN NaN 9.353294e-1 -2.321367e-1 NaN NaN
8.200000e8 -4.902821e-2 -5.898608e-2 NaN NaN -6.621749e-5 -2.243761e-4 NaN NaN
 9.159406e-1 -3.648523e-1 NaN NaN 1.072454e-4 3.295528e-4 NaN NaN
 -6.421781e-5 -2.173313e-4 NaN NaN -1.891924e-2 1.856877e-1 NaN NaN
 1.434014e-4 3.590230e-4 NaN NaN 9.361058e-1 -2.414654e-1 NaN NaN
8.300000e8 -5.159835e-2 -5.799009e-2 NaN NaN -6.594288e-5 -2.369846e-4 NaN NaN
 9.158825e-1 -3.704125e-1 NaN NaN 1.183452e-4 3.485627e-4 NaN NaN
 -6.389841e-5 -2.311537e-4 NaN NaN -2.101986e-2 1.835422e-1 NaN NaN
 1.373096e-4 3.379894e-4 NaN NaN 9.365147e-1 -2.531175e-1 NaN NaN
8.400000e8 -5.275988e-2 -5.589278e-2 NaN NaN -7.400366e-5 -2.484435e-4 NaN NaN
 9.143998e-1 -3.770521e-1 NaN NaN 1.396810e-4 3.566347e-4 NaN NaN
 -7.290418e-5 -2.433218e-4 NaN NaN -2.116270e-2 1.828071e-1 NaN NaN
 1.155075e-4 3.327132e-4 NaN NaN 9.348229e-1 -2.659945e-1 NaN NaN
8.500000e8 -5.221932e-2 -5.417367e-2 NaN NaN -8.649925e-5 -2.528324e-4 NaN NaN
 9.111977e-1 -3.833000e-1 NaN NaN 1.591859e-4 3.499792e-4 NaN NaN
 -8.658508e-5 -2.473426e-4 NaN NaN -1.911449e-2 1.814553e-1 NaN NaN
 9.581466e-5 3.493665e-4 NaN NaN 9.307800e-1 -2.781042e-1 NaN NaN
8.600000e8 -5.090992e-2 -5.397382e-2 NaN NaN -9.641237e-5 -2.493538e-4 NaN NaN
 9.072017e-1 -3.880191e-1 NaN NaN 1.663424e-4 3.354212e-4 NaN NaN
 -9.701223e-5 -2.426315e-4 NaN NaN -1.625441e-2 1.780505e-1 NaN NaN
 9.418575e-5 3.782416e-4 NaN NaN 9.257320e-1 -2.880144e-1 NaN NaN
8.700000e8 -5.027217e-2 -5.529921e-2 NaN NaN -9.865024e-5 -2.428653e-4 NaN NaN
 9.038444e-1 -3.911999e-1 NaN NaN 1.597208e-4 3.253071e-4 NaN NaN
 -9.868100e-5 -2.348750e-4 NaN NaN -1.452154e-2 1.727393e-1 NaN NaN
 1.132807e-4 4.010397e-4 NaN NaN 9.215994e-1 -2.958444e-1 NaN NaN
8.800000e8 -5.120710e-2 -5.706795e-2 NaN NaN -9.367345e-5 -2.403662e-4 NaN NaN
 9.020243e-1 -3.939155e-1 NaN NaN 1.478502e-4 3.285284e-4 NaN NaN
 -9.242070e-5 -2.319088e-4 NaN NaN -1.501155e-2 1.670759e-1 NaN NaN
 1.408204e-4 4.041773e-4 NaN NaN 9.194913e-1 -3.031134e-1 NaN NaN
8.900000e8 -5.346058e-2 -5.792694e-2 NaN NaN -8.712736e-5 -2.459774e-4 NaN NaN
 9.014926e-1 -3.975115e-1 NaN NaN 1.429099e-4 3.441849e-4 NaN NaN
 -8.474581e-5 -2.381066e-4 NaN NaN -1.723376e-2 1.628565e-1 NaN NaN
 1.586818e-4 3.884373e-4 NaN NaN 9.189559e-1 -3.116028e-1 NaN NaN
9.000000e8 -5.585384e-2 -5.722450e-2 NaN NaN -8.576856e-5 -2.580175e-4 NaN NaN
 9.010796e-1 -4.026387e-1 NaN NaN 1.519045e-4 3.624038e-4 NaN NaN
 -8.316098e-5 -2.512869e-4 NaN NaN -1.952659e-2 1.608324e-1 NaN NaN
 1.560026e-4 3.681467e-4 NaN NaN 9.183710e-1 -3.220807e-1 NaN NaN
9.100000e8 -5.716057e-2 -5.544403e-2 NaN NaN -9.262696e-5 -2.702486e-4 NaN NaN
 8.995656e-1 -4.088201e-1 NaN NaN 1.717144e-4 3.715971e-4 NaN NaN
 -9.079170e-5 -2.643197e-4 NaN NaN -2.028604e-2 1.602211e-1 NaN NaN
 1.368552e-4 3.606579e-4 NaN NaN 9.161473e-1 -3.338017e-1 NaN NaN
9.200000e8 -5.698201e-2 -5.381239e-2 NaN NaN -1.048676e-4 -2.763716e-4 NaN NaN
 8.965508e-1 -4.148376e-1 NaN NaN 1.915132e-4 3.668282e-4 NaN NaN
 -1.041793e-4 -2.702653e-4 NaN NaN -1.910028e-2 1.593267e-1 NaN NaN
 1.170653e-4 3.738242e-4 NaN NaN 9.118574e-1 -3.451006e-1 NaN NaN
9.300000e8 -5.599622e-2 -5.339447e-2 NaN NaN -1.158612e-4 -2.745339e-4 NaN NaN
 8.927058e-1 -4.196313e-1 NaN NaN 2.006857e-4 3.532533e-4 NaN NaN
 -1.158089e-4 -2.673442e-4 NaN NaN -1.698964e-2 1.567827e-1 NaN NaN
 1.126229e-4 4.005192e-4 NaN NaN 9.064924e-1 -3.546145e-1 NaN NaN
9.400000e8 -5.542927e-2 -5.434146e-2 NaN NaN -1.199559e-4 -2.686272e-4 NaN NaN
 8.892481e-1 -4.230468e-1 NaN NaN 1.964648e-4 3.422468e-4 NaN NaN
 -1.195261e-4 -2.601696e-4 NaN NaN -1.561966e-2 1.525082e-1 NaN NaN
 1.281840e-4 4.240364e-4 NaN NaN 9.017007e-1 -3.622390e-1 NaN NaN
9.500000e8 -5.615929e-2 -5.582222e-2 NaN NaN -1.165196e-4 -2.654651e-4 NaN NaN
 8.870526e-1 -4.259067e-1 NaN NaN 1.857972e-4 3.431141e-4 NaN NaN
 -1.149296e-4 -2.563941e-4 NaN NaN -1.608862e-2 1.477107e-1 NaN NaN
 1.539379e-4 4.302675e-4 NaN NaN 8.985912e-1 -3.691517e-1 NaN NaN
9.600000e8 -5.810661e-2 -5.665559e-2 NaN NaN -1.103640e-4 -2.698868e-4 NaN NaN
 8.860444e-1 -4.293837e-1 NaN NaN 1.801871e-4 3.564271e-4 NaN NaN
 -1.076150e-4 -2.612145e-4 NaN NaN -1.816849e-2 1.439738e-1 NaN NaN
 1.729121e-4 4.177816e-4 NaN NaN 8.969690e-1 -3.769229e-1 NaN NaN
9.700000e8 -6.032969e-2 -5.616471e-2 NaN NaN -1.082669e-4 -2.813040e-4 NaN NaN
 8.852914e-1 -4.341531e-1 NaN NaN 1.873441e-4 3.737539e-4 NaN NaN
 -1.051334e-4 -2.736740e-4 NaN NaN -2.052008e-2 1.421147e-1 NaN NaN
 1.732763e-4 3.986343e-4 NaN NaN 8.955286e-1 -3.863847e-1 NaN NaN
9.800000e8 -6.172967e-2 -5.463855e-2 NaN NaN -1.141095e-4 -2.941560e-4 NaN NaN
 8.837019e-1 -4.399319e-1 NaN NaN 2.056955e-4 3.838713e-4 NaN NaN
 -1.115783e-4 -2.873849e-4 NaN NaN -2.168920e-2 1.416335e-1 NaN NaN
 1.567558e-4 3.894902e-4 NaN NaN 8.928282e-1 -3.970695e-1 NaN NaN
9.900000e8 -6.183965e-2 -5.308784e-2 NaN NaN -1.261160e-4 -3.019219e-4 NaN NaN
 8.808090e-1 -4.457189e-1 NaN NaN 2.256666e-4 3.808874e-4 NaN NaN
 -1.246745e-4 -2.951362e-4 NaN NaN -2.114402e-2 1.411214e-1 NaN NaN
 1.371753e-4 3.995688e-4 NaN NaN 8.883218e-1 -4.075954e-1 NaN NaN
1.000000e9 -6.113265e-2 -5.249567e-2 NaN NaN -1.381603e-4 -3.017972e-4 NaN NaN
 8.770782e-1 -4.505365e-1 NaN NaN 2.366977e-4 3.684000e-4 NaN NaN
 -1.374502e-4 -2.940696e-4 NaN NaN -1.961499e-2 1.392983e-1 NaN NaN
 1.303156e-4 4.241336e-4 NaN NaN 8.827135e-1 -4.166858e-1 NaN NaN
1.010000e9 -6.064664e-2 -5.311742e-2 NaN NaN -1.441821e-4 -2.966842e-4 NaN NaN
 8.735383e-1 -4.541269e-1 NaN NaN 2.348638e-4 3.567628e-4 NaN NaN
 -1.432700e-4 -2.876996e-4 NaN NaN -1.852366e-2 1.359179e-1 NaN NaN
 1.425302e-4 4.481372e-4 NaN NaN 8.774090e-1 -4.240738e-1 NaN NaN
1.020000e9 -6.122217e-2 -5.432795e-2 NaN NaN -1.425335e-4 -2.930812e-4 NaN NaN
 8.710260e-1 -4.571064e-1 NaN NaN 2.256038e-4 3.555275e-4 NaN NaN
 -1.405881e-4 -2.833498e-4 NaN NaN -1.894233e-2 1.319015e-1 NaN NaN
 1.663423e-4 4.572153e-4 NaN NaN 8.734896e-1 -4.306541e-1 NaN NaN
1.030000e9 -6.291161e-2 -5.510167e-2 NaN NaN -1.371408e-4 -2.964051e-4 NaN NaN
 8.695979e-1 -4.604920e-1 NaN NaN 2.196660e-4 3.665760e-4 NaN NaN
 -1.340234e-4 -2.868839e-4 NaN NaN -2.084292e-2 1.286357e-1 NaN NaN
 1.860496e-4 4.479923e-4 NaN NaN 8.709560e-1 -4.378017e-1 NaN NaN
1.040000e9 -6.497231e-2 -5.475829e-2 NaN NaN -1.346641e-4 -3.071118e-4 NaN NaN
 8.685209e-1 -4.649613e-1 NaN NaN 2.252905e-4 3.828773e-4 NaN NaN
 -1.310187e-4 -2.985150e-4 NaN NaN -2.315843e-2 1.269664e-1 NaN NaN
 1.891337e-4 4.303299e-4 NaN NaN 8.687705e-1 -4.463756e-1 NaN NaN
1.050000e9 -6.642581e-2 -5.343451e-2 NaN NaN -1.397102e-4 -3.203930e-4 NaN NaN
 8.668244e-1 -4.703834e-1 NaN NaN 2.423124e-4 3.936807e-4 NaN NaN
 -1.364953e-4 -3.126808e-4 NaN NaN -2.458157e-2 1.266162e-1 NaN NaN
 1.752077e-4 4.200403e-4 NaN NaN 8.656363e-1 -4.561271e-1 NaN NaN
1.060000e9 -6.676448e-2 -5.195606e-2 NaN NaN -1.515408e-4 -3.296483e-4 NaN NaN
 8.640015e-1 -4.759422e-1 NaN NaN 2.624037e-4 3.923111e-4 NaN NaN
 -1.493368e-4 -3.220586e-4 NaN NaN -2.450379e-2 1.264243e-1 NaN NaN
 1.561158e-4 4.274262e-4 NaN NaN 8.609319e-1 -4.659196e-1 NaN NaN
1.070000e9 -6.629638e-2 -5.122256e-2 NaN NaN -1.646283e-4 -3.312274e-4 NaN NaN
 8.603530e-1 -4.807444e-1 NaN NaN 2.751882e-4 3.809187e-4 NaN NaN
 -1.632209e-4 -3.228305e-4 NaN NaN -2.342129e-2 1.252059e-1 NaN NaN
 1.472265e-4 4.499491e-4 NaN NaN 8.551293e-1 -4.745711e-1 NaN NaN
1.080000e9 -6.589466e-2 -5.156246e-2 NaN NaN -1.726438e-4 -3.270366e-4 NaN NaN
 8.567425e-1 -4.844599e-1 NaN NaN 2.757468e-4 3.688071e-4 NaN NaN
 -1.711879e-4 -3.174043e-4 NaN NaN -2.253912e-2 1.225964e-1 NaN NaN
 1.563180e-4 4.742563e-4 NaN NaN 8.494191e-1 -4.816988e-1 NaN NaN
1.090000e9 -6.635318e-2 -5.252015e-2 NaN NaN -1.730059e-4 -3.231481e-4 NaN NaN
 8.539593e-1 -4.875357e-1 NaN NaN 2.680900e-4 3.656309e-4 NaN NaN
 -1.706398e-4 -3.126510e-4 NaN NaN -2.288500e-2 1.192804e-1 NaN NaN
 1.781050e-4 4.859566e-4 NaN NaN 8.448365e-1 -4.879632e-1 NaN NaN
1.100000e9 -6.782337e-2 -5.321010e-2 NaN NaN -1.687226e-4 -3.254236e-4 NaN NaN
 8.521582e-1 -4.908479e-1 NaN NaN 2.621496e-4 3.744316e-4 NaN NaN
 -1.651819e-4 -3.149527e-4 NaN NaN -2.458214e-2 1.164644e-1 NaN NaN
 1.982412e-4 4.799809e-4 NaN NaN 8.415304e-1 -4.945603e-1 NaN NaN
1.110000e9 -6.972967e-2 -5.296388e-2 NaN NaN -1.662129e-4 -3.353056e-4 NaN NaN
 8.507734e-1 -4.950616e-1 NaN NaN 2.665436e-4 3.895319e-4 NaN NaN
 -1.620116e-4 -3.256281e-4 NaN NaN -2.679344e-2 1.149964e-1 NaN NaN
 2.037647e-4 4.640881e-4 NaN NaN 8.386897e-1 -5.023500e-1 NaN NaN
1.120000e9 -7.120593e-2 -5.179922e-2 NaN NaN -1.706883e-4 -3.487957e-4 NaN NaN
 8.489472e-1 -5.001644e-1 NaN NaN 2.823840e-4 4.007398e-4 NaN NaN
 -1.667429e-4 -3.400040e-4 NaN NaN -2.835225e-2 1.147740e-1 NaN NaN
 1.923983e-4 4.531084e-4 NaN NaN 8.351570e-1 -5.112559e-1 NaN NaN
1.130000e9 -7.172402e-2 -5.038329e-2 NaN NaN -1.824161e-4 -3.593434e-4 NaN NaN
 8.461531e-1 -5.054989e-1 NaN NaN 3.025736e-4 4.007505e-4 NaN NaN
 -1.793818e-4 -3.507901e-4 NaN NaN -2.860524e-2 1.148505e-1 NaN NaN
 1.740455e-4 4.581765e-4 NaN NaN 8.302665e-1 -5.203531e-1 NaN NaN
1.140000e9 -7.145931e-2 -4.953323e-2 NaN NaN -1.965449e-4 -3.625576e-4 NaN NaN
 8.425596e-1 -5.102551e-1 NaN NaN 3.170263e-4 3.903736e-4 NaN NaN
 -1.943427e-4 -3.533261e-4 NaN NaN -2.785926e-2 1.141396e-1 NaN NaN
 1.634946e-4 4.787653e-4 NaN NaN 8.243029e-1 -5.285579e-1 NaN NaN
1.150000e9 -7.114057e-2 -4.962685e-2 NaN NaN -2.066072e-4 -3.593550e-4 NaN NaN
 8.388855e-1 -5.140544e-1 NaN NaN 3.199766e-4 3.778470e-4 NaN NaN
 -2.044865e-4 -3.489207e-4 NaN NaN -2.712783e-2 1.121946e-1 NaN NaN
 1.697019e-4 5.032292e-4 NaN NaN 8.182662e-1 -5.354067e-1 NaN NaN
1.160000e9 -7.150967e-2 -5.034823e-2 NaN NaN -2.091737e-4 -3.552860e-4 NaN NaN
 8.358671e-1 -5.172041e-1 NaN NaN 3.140862e-4 3.728059e-4 NaN NaN
 -2.062578e-4 -3.438855e-4 NaN NaN -2.738241e-2 1.095041e-1 NaN NaN
 1.894298e-4 5.173457e-4 NaN NaN 8.131344e-1 -5.413662e-1 NaN NaN
1.170000e9 -7.279145e-2 -5.093757e-2 NaN NaN -2.063142e-4 -3.565322e-4 NaN NaN
 8.337323e-1 -5.204543e-1 NaN NaN 3.084252e-4 3.793144e-4 NaN NaN
 -2.022268e-4 -3.449821e-4 NaN NaN -2.885960e-2 1.071105e-1 NaN NaN
 2.097478e-4 5.145833e-4 NaN NaN 8.091674e-1 -5.474691e-1 NaN NaN
1.180000e9 -7.455089e-2 -5.074882e-2 NaN NaN -2.040985e-4 -3.654592e-4 NaN NaN
 8.320554e-1 -5.244468e-1 NaN NaN 3.118570e-4 3.929981e-4 NaN NaN
 -1.992251e-4 -3.545641e-4 NaN NaN -3.091666e-2 1.058459e-1 NaN NaN
 2.174632e-4 5.006963e-4 NaN NaN 8.057461e-1 -5.545584e-1 NaN NaN
1.190000e9 -7.602584e-2 -4.970719e-2 NaN NaN -2.082261e-4 -3.789221e-4 NaN NaN
 8.300838e-1 -5.292610e-1 NaN NaN 3.266485e-4 4.042940e-4 NaN NaN
 -2.034298e-4 -3.688956e-4 NaN NaN -3.251960e-2 1.057446e-1 NaN NaN
 2.086169e-4 4.894309e-4 NaN NaN 8.018446e-1 -5.626925e-1 NaN NaN
1.200000e9 -7.668248e-2 -4.834378e-2 NaN NaN -2.199302e-4 -3.905367e-4 NaN NaN
 8.272857e-1 -5.343759e-1 NaN NaN 3.469116e-4 4.054042e-4 NaN NaN
 -2.159248e-4 -3.808481e-4 NaN NaN -3.299393e-2 1.060450e-1 NaN NaN
 1.912226e-4 4.925316e-4 NaN NaN 7.967767e-1 -5.711298e-1 NaN NaN
1.210000e9 -7.658955e-2 -4.739583e-2 NaN NaN -2.351002e-4 -3.952747e-4 NaN NaN
 8.237236e-1 -5.390621e-1 NaN NaN 3.629409e-4 3.958986e-4 NaN NaN
 -2.319328e-4 -3.850348e-4 NaN NaN -3.249363e-2 1.057591e-1 NaN NaN
 1.793495e-4 5.113048e-4 NaN NaN 7.906753e-1 -5.788846e-1 NaN NaN
1.220000e9 -7.634931e-2 -4.727248e-2 NaN NaN -2.472492e-4 -3.930782e-4 NaN NaN
 8.199895e-1 -5.429104e-1 NaN NaN 3.682575e-4 3.829433e-4 NaN NaN
 -2.442684e-4 -3.816820e-4 NaN NaN -3.186311e-2 1.043854e-1 NaN NaN
 1.829100e-4 5.358084e-4 NaN NaN 7.843719e-1 -5.854398e-1 NaN NaN
1.230000e9 -7.664905e-2 -4.777296e-2 NaN NaN -2.521864e-4 -3.888937e-4 NaN NaN
 8.167644e-1 -5.461134e-1 NaN NaN 3.642514e-4 3.760478e-4 NaN NaN
 -2.485155e-4 -3.764508e-4 NaN NaN -3.201065e-2 1.022505e-1 NaN NaN
 2.005733e-4 5.521561e-4 NaN NaN 7.787809e-1 -5.911010e-1 NaN NaN
1.240000e9 -7.776693e-2 -4.825017e-2 NaN NaN -2.510338e-4 -3.891053e-4 NaN NaN
 8.143286e-1 -5.493079e-1 NaN NaN 3.590978e-4 3.801744e-4 NaN NaN
 -2.461985e-4 -3.763511e-4 NaN NaN -3.325659e-2 1.002481e-1 NaN NaN
 2.208654e-4 5.525648e-4 NaN NaN 7.742439e-1 -5.967532e-1 NaN NaN
1.250000e9 -7.938634e-2 -4.808752e-2 NaN NaN -2.494160e-4 -3.969354e-4 NaN NaN
 8.123749e-1 -5.531055e-1 NaN NaN 3.617887e-4 3.922004e-4 NaN NaN
 -2.436767e-4 -3.846975e-4 NaN NaN -3.512259e-2 9.918162e-2 NaN NaN
 2.305492e-4 5.408848e-4 NaN NaN 7.703048e-1 -6.032099e-1 NaN NaN
1.260000e9 -8.084088e-2 -4.713875e-2 NaN NaN -2.534087e-4 -4.101254e-4 NaN NaN
 8.102467e-1 -5.576565e-1 NaN NaN 3.756350e-4 4.032490e-4 NaN NaN
 -2.475663e-4 -3.987276e-4 NaN NaN -3.669851e-2 9.919194e-2 NaN NaN
 2.241758e-4 5.296981e-4 NaN NaN 7.660606e-1 -6.106346e-1 NaN NaN
1.270000e9 -8.160187e-2 -4.581805e-2 NaN NaN -2.651663e-4 -4.225636e-4 NaN NaN
 8.074185e-1 -5.625567e-1 NaN NaN 3.959323e-4 4.051501e-4 NaN NaN
 -2.599792e-4 -4.115924e-4 NaN NaN -3.730609e-2 9.967706e-2 NaN NaN
 2.079274e-4 5.311613e-4 NaN NaN 7.608218e-1 -6.184441e-1 NaN NaN
1.280000e9 -8.165254e-2 -4.478629e-2 NaN NaN -2.813732e-4 -4.286857e-4 NaN NaN
 8.038677e-1 -5.671538e-1 NaN NaN 4.134329e-4 3.963277e-4 NaN NaN
 -2.770058e-4 -4.172905e-4 NaN NaN -3.697606e-2 9.974519e-2 NaN NaN
 1.950382e-4 5.482476e-4 NaN NaN 7.545990e-1 -6.257488e-1 NaN NaN
1.290000e9 -8.148423e-2 -4.447020e-2 NaN NaN -2.956339e-4 -4.274811e-4 NaN NaN
 8.000753e-1 -5.710219e-1 NaN NaN 4.210640e-4 3.828752e-4 NaN NaN
 -2.915378e-4 -4.149906e-4 NaN NaN -3.640366e-2 9.886085e-2 NaN NaN
 1.961768e-4 5.727037e-4 NaN NaN 7.480748e-1 -6.319982e-1 NaN NaN
1.300000e9 -8.172882e-2 -4.476399e-2 NaN NaN -3.030826e-4 -4.232209e-4 NaN NaN
 7.966659e-1 -5.742592e-1 NaN NaN 4.190163e-4 3.740841e-4 NaN NaN
 -2.983941e-4 -4.096235e-4 NaN NaN -3.643046e-2 9.721635e-2 NaN NaN
 2.117844e-4 5.911235e-4 NaN NaN 7.420963e-1 -6.373649e-1 NaN NaN
1.310000e9 -8.270215e-2 -4.512146e-2 NaN NaN -3.038925e-4 -4.223802e-4 NaN NaN
 7.939567e-1 -5.774010e-1 NaN NaN 4.145439e-4 3.757024e-4 NaN NaN
 -2.980517e-4 -4.083246e-4 NaN NaN -3.743724e-2 9.557158e-2 NaN NaN
 2.318696e-4 5.946652e-4 NaN NaN 7.370644e-1 -6.425999e-1 NaN NaN
1.320000e9 -8.418744e-2 -4.496009e-2 NaN NaN -3.031560e-4 -4.289698e-4 NaN NaN
 7.917400e-1 -5.810241e-1 NaN NaN 4.166649e-4 3.858097e-4 NaN NaN
 -2.963020e-4 -4.152939e-4 NaN NaN -3.908485e-2 9.469247e-2 NaN NaN
 2.433150e-4 5.853743e-4 NaN NaN 7.326608e-1 -6.484788e-1 NaN NaN
1.330000e9 -8.560616e-2 -4.407898e-2 NaN NaN -3.072186e-4 -4.416418e-4 NaN NaN
 7.894479e-1 -5.853324e-1 NaN NaN 4.296323e-4 3.962644e-4 NaN NaN
 -3.000823e-4 -4.287684e-4 NaN NaN -4.057799e-2 9.480211e-2 NaN NaN
 2.393595e-4 5.746044e-4 NaN NaN 7.280973e-1 -6.552464e-1 NaN NaN
1.340000e9 -8.644264e-2 -4.279170e-2 NaN NaN -3.191077e-4 -4.546545e-4 NaN NaN
 7.865687e-1 -5.900226e-1 NaN NaN 4.499007e-4 3.986319e-4 NaN NaN
 -3.124789e-4 -4.422864e-4 NaN NaN -4.124738e-2 9.543657e-2 NaN NaN
 2.244146e-4 5.747483e-4 NaN NaN 7.226934e-1 -6.624567e-1 NaN NaN
1.350000e9 -8.661173e-2 -4.168683e-2 NaN NaN -3.363474e-4 -4.620055e-4 NaN NaN
 7.830121e-1 -5.945154e-1 NaN NaN 4.687472e-4 3.902768e-4 NaN NaN
 -3.304992e-4 -4.493412e-4 NaN NaN -4.102468e-2 9.579644e-2 NaN NaN
 2.107819e-4 5.902900e-4 NaN NaN 7.163612e-1 -6.693128e-1 NaN NaN
1.360000e9 -8.650746e-2 -4.119817e-2 NaN NaN -3.527380e-4 -4.617588e-4 NaN NaN
 7.791615e-1 -5.983787e-1 NaN NaN 4.786126e-4 3.762208e-4 NaN NaN
 -3.472270e-4 -4.480735e-4 NaN NaN -4.047360e-2 9.532831e-2 NaN NaN
 2.097054e-4 6.146439e-4 NaN NaN 7.096520e-1 -6.752465e-1 NaN NaN
1.370000e9 -8.670671e-2 -4.129826e-2 NaN NaN -3.628242e-4 -4.574465e-4 NaN NaN
 7.755856e-1 -6.016328e-1 NaN NaN 4.785560e-4 3.654560e-4 NaN NaN
 -3.568112e-4 -4.426140e-4 NaN NaN -4.036771e-2 9.411345e-2 NaN NaN
 2.232707e-4 6.350097e-4 NaN NaN 7.033440e-1 -6.803200e-1 NaN NaN
1.380000e9 -8.755061e-2 -4.153124e-2 NaN NaN -3.658351e-4 -4.555288e-4 NaN NaN
 7.726262e-1 -6.047224e-1 NaN NaN 4.748887e-4 3.644138e-4 NaN NaN
 -3.586868e-4 -4.401067e-4 NaN NaN -4.112997e-2 9.279104e-2 NaN NaN
 2.429859e-4 6.416630e-4 NaN NaN 6.978796e-1 -6.851635e-1 NaN NaN
1.390000e9 -8.890674e-2 -4.135150e-2 NaN NaN -3.662518e-4 -4.607357e-4 NaN NaN
 7.701596e-1 -6.081862e-1 NaN NaN 4.765628e-4 3.723301e-4 NaN NaN
 -3.579902e-4 -4.455602e-4 NaN NaN -4.253919e-2 9.208400e-2 NaN NaN
 2.559989e-4 6.349402e-4 NaN NaN 6.930578e-1 -6.905091e-1 NaN NaN
1.400000e9 -9.027698e-2 -4.051700e-2 NaN NaN -3.705867e-4 -4.726475e-4 NaN NaN
 7.676988e-1 -6.122689e-1 NaN NaN 4.886816e-4 3.818408e-4 NaN NaN
 -3.618664e-4 -4.582304e-4 NaN NaN -4.390602e-2 9.227818e-2 NaN NaN
 2.544002e-4 6.249145e-4 NaN NaN 6.881961e-1 -6.966636e-1 NaN NaN
1.410000e9 -9.116434e-2 -3.925457e-2 NaN NaN -3.826895e-4 -4.859834e-4 NaN NaN
 7.647518e-1 -6.167535e-1 NaN NaN 5.088343e-4 3.843444e-4 NaN NaN
 -3.743198e-4 -4.721426e-4 NaN NaN -4.457945e-2 9.302903e-2 NaN NaN
 2.408919e-4 6.240564e-4 NaN NaN 6.826327e-1 -7.033003e-1 NaN NaN
1.420000e9 -9.142932e-2 -3.808476e-2 NaN NaN -4.009625e-4 -4.943995e-4 NaN NaN
 7.611746e-1 -6.211295e-1 NaN NaN 5.288834e-4 3.762244e-4 NaN NaN
 -3.933170e-4 -4.803908e-4 NaN NaN -4.441184e-2 9.362516e-2 NaN NaN
 2.267587e-4 6.382157e-4 NaN NaN 6.762006e-1 -7.097101e-1 NaN NaN
1.430000e9 -9.138041e-2 -3.744046e-2 NaN NaN -4.195005e-4 -4.950645e-4 NaN NaN
 7.572650e-1 -6.249669e-1 NaN NaN 5.408814e-4 3.614329e-4 NaN NaN
 -4.122428e-4 -4.801218e-4 NaN NaN -4.385081e-2 9.350747e-2 NaN NaN
 2.236559e-4 6.624493e-4 NaN NaN 6.693345e-1 -7.153199e-1 NaN NaN
1.440000e9 -9.154069e-2 -3.735867e-2 NaN NaN -4.323440e-4 -4.907144e-4 NaN NaN
 7.535369e-1 -6.282219e-1 NaN NaN 5.428170e-4 3.485878e-4 NaN NaN
 -4.246696e-4 -4.746030e-4 NaN NaN -4.360216e-2 9.266537e-2 NaN NaN
 2.351924e-4 6.846746e-4 NaN NaN 6.627446e-1 -7.200999e-1 NaN NaN
1.450000e9 -9.226690e-2 -3.746452e-2 NaN NaN -4.377867e-4 -4.876931e-4 NaN NaN
 7.503468e-1 -6.312578e-1 NaN NaN 5.400392e-4 3.447107e-4 NaN NaN
 -4.290008e-4 -4.708754e-4 NaN NaN -4.411663e-2 9.162934e-2 NaN NaN
 2.543875e-4 6.944461e-4 NaN NaN 6.569003e-1 -7.245716e-1 NaN NaN
1.460000e9 -9.349787e-2 -3.725086e-2 NaN NaN -4.396257e-4 -4.913794e-4 NaN NaN
 7.476420e-1 -6.345742e-1 NaN NaN 5.413501e-4 3.501516e-4 NaN NaN
 -4.296377e-4 -4.746789e-4 NaN NaN -4.527300e-2 9.107579e-2 NaN NaN
 2.687853e-4 6.904829e-4 NaN NaN 6.517003e-1 -7.294199e-1 NaN NaN
1.470000e9 -9.480905e-2 -3.644535e-2 NaN NaN -4.444401e-4 -5.022948e-4 NaN NaN
 7.450096e-1 -6.384448e-1 NaN NaN 5.526189e-4 3.583632e-4 NaN NaN
 -4.338228e-4 -4.863016e-4 NaN NaN -4.647954e-2 9.133759e-2 NaN NaN
 2.694801e-4 6.815337e-4 NaN NaN 6.465598e-1 -7.349982e-1 NaN NaN
1.480000e9 -9.572614e-2 -3.520000e-2 NaN NaN -4.568492e-4 -5.157057e-4 NaN NaN
 7.419813e-1 -6.427277e-1 NaN NaN 5.725481e-4 3.606663e-4 NaN NaN
 -4.464205e-4 -5.003500e-4 NaN NaN -4.711020e-2 9.217358e-2 NaN NaN
 2.575243e-4 6.800020e-4 NaN NaN 6.408423e-1 -7.410832e-1 NaN NaN
1.490000e9 -9.606675e-2 -3.397153e-2 NaN NaN -4.761678e-4 -5.250210e-4 NaN NaN
 7.383709e-1 -6.469768e-1 NaN NaN 5.936417e-4 3.525350e-4 NaN NaN
 -4.663934e-4 -5.096231e-4 NaN NaN -4.695430e-2 9.295559e-2 NaN NaN
 2.431109e-4 6.929675e-4 NaN NaN 6.343177e-1 -7.470496e-1 NaN NaN
1.500000e9 -9.606410e-2 -3.318586e-2 NaN NaN -4.968800e-4 -5.265476e-4 NaN NaN
 7.344007e-1 -6.507700e-1 NaN NaN 6.076535e-4 3.368519e-4 NaN NaN
 -4.875309e-4 -5.103104e-4 NaN NaN -4.635696e-2 9.312823e-2 NaN NaN
 2.381553e-4 7.171042e-4 NaN NaN 6.273177e-1 -7.523282e-1 NaN NaN
1.510000e9 -9.618918e-2 -3.293297e-2 NaN NaN -5.126075e-4 -5.221726e-4 NaN NaN
 7.305319e-1 -6.540113e-1 NaN NaN 6.115578e-4 3.217914e-4 NaN NaN
 -5.029228e-4 -5.047587e-4 NaN NaN -4.595746e-2 9.260515e-2 NaN NaN
 2.476763e-4 7.411480e-4 NaN NaN 6.204854e-1 -7.568133e-1 NaN NaN
1.520000e9 -9.680664e-2 -3.291060e-2 NaN NaN -5.207216e-4 -5.180244e-4 NaN NaN
 7.271277e-1 -6.569910e-1 NaN NaN 6.097214e-4 3.148794e-4 NaN NaN
 -5.099545e-4 -4.997977e-4 NaN NaN -4.622292e-2 9.181897e-2 NaN NaN
 2.662120e-4 7.540826e-4 NaN NaN 6.143059e-1 -7.609279e-1 NaN NaN
1.530000e9 -9.791555e-2 -3.265072e-2 NaN NaN -5.242663e-4 -5.200590e-4 NaN NaN
 7.241954e-1 -6.601684e-1 NaN NaN 6.107170e-4 3.175425e-4 NaN NaN
 -5.122173e-4 -5.018199e-4 NaN NaN -4.711685e-2 9.139762e-2 NaN NaN
 2.818236e-4 7.530969e-4 NaN NaN 6.087629e-1 -7.653080e-1 NaN NaN
1.540000e9 -9.915866e-2 -3.185950e-2 NaN NaN -5.297886e-4 -5.297477e-4 NaN NaN
 7.213897e-1 -6.638381e-1 NaN NaN 6.211025e-4 3.240893e-4 NaN NaN
 -5.169436e-4 -5.121553e-4 NaN NaN -4.813722e-2 9.170825e-2 NaN NaN
 2.847510e-4 7.455760e-4 NaN NaN 6.033616e-1 -7.703409e-1 NaN NaN
1.550000e9 -1.000871e-1 -3.062427e-2 NaN NaN -5.426227e-4 -5.429862e-4 NaN NaN
 7.182690e-1 -6.679225e-1 NaN NaN 6.406763e-4 3.258468e-4 NaN NaN
 -5.297975e-4 -5.260814e-4 NaN NaN -4.868775e-2 9.259932e-2 NaN NaN
 2.744550e-4 7.437220e-4 NaN NaN 5.974957e-1 -7.758936e-1 NaN NaN
1.560000e9 -1.004852e-1 -2.934204e-2 NaN NaN -5.630258e-4 -5.530310e-4 NaN NaN
 7.146144e-1 -6.720360e-1 NaN NaN 6.626390e-4 3.174448e-4 NaN NaN
 -5.507701e-4 -5.362050e-4 NaN NaN -4.850806e-2 9.352100e-2 NaN NaN
 2.599682e-4 7.557169e-4 NaN NaN 5.908850e-1 -7.814194e-1 NaN NaN
1.570000e9 -1.005196e-1 -2.842712e-2 NaN NaN -5.859635e-4 -5.553629e-4 NaN NaN
 7.105819e-1 -6.757693e-1 NaN NaN 6.785306e-4 3.006940e-4 NaN NaN
 -5.741561e-4 -5.377979e-4 NaN NaN -4.785270e-2 9.392878e-2 NaN NaN
 2.533243e-4 7.798260e-4 NaN NaN 5.837701e-1 -7.863604e-1 NaN NaN
1.580000e9 -1.006112e-1 -2.801287e-2 NaN NaN -6.047250e-4 -5.509710e-4 NaN NaN
 7.065815e-1 -6.789834e-1 NaN NaN 6.843611e-4 2.832571e-4 NaN NaN
 -5.926567e-4 -5.322329e-4 NaN NaN -4.729633e-2 9.367394e-2 NaN NaN
 2.608443e-4 8.056978e-4 NaN NaN 5.767283e-1 -7.905482e-1 NaN NaN
1.590000e9 -1.011267e-1 -2.786223e-2 NaN NaN -6.157746e-4 -5.456706e-4 NaN NaN
 7.029772e-1 -6.819033e-1 NaN NaN 6.834929e-4 2.730834e-4 NaN NaN
 -6.026565e-4 -5.260217e-4 NaN NaN -4.731340e-2 9.310097e-2 NaN NaN
 2.785915e-4 8.218876e-4 NaN NaN 5.702519e-1 -7.943168e-1 NaN NaN
1.600000e9 -1.021158e-1 -2.754640e-2 NaN NaN -6.213374e-4 -5.459214e-4 NaN NaN
 6.998268e-1 -6.849481e-1 NaN NaN 6.841931e-4 2.726436e-4 NaN NaN
 -6.068650e-4 -5.261298e-4 NaN NaN -4.793927e-2 9.278843e-2 NaN NaN
 2.952582e-4 8.241373e-4 NaN NaN 5.643969e-1 -7.982519e-1 NaN NaN
1.610000e9 -1.032829e-1 -2.675716e-2 NaN NaN -6.278301e-4 -5.541502e-4 NaN NaN
 6.968471e-1 -6.884258e-1 NaN NaN 6.936350e-4 2.771416e-4 NaN NaN
 -6.123978e-4 -5.349350e-4 NaN NaN -4.875432e-2 9.312747e-2 NaN NaN
 3.003656e-4 8.184313e-4 NaN NaN 5.587516e-1 -8.027652e-1 NaN NaN
1.620000e9 -1.042067e-1 -2.552585e-2 NaN NaN -6.412448e-4 -5.669626e-4 NaN NaN
 6.936250e-1 -6.923143e-1 NaN NaN 7.126999e-4 2.779926e-4 NaN NaN
 -6.256567e-4 -5.484724e-4 NaN NaN -4.919537e-2 9.404425e-2 NaN NaN
 2.918380e-4 8.166427e-4 NaN NaN 5.527431e-1 -8.078017e-1 NaN NaN
1.630000e9 -1.046456e-1 -2.419372e-2 NaN NaN -6.628079e-4 -5.775572e-4 NaN NaN
 6.899166e-1 -6.962848e-1 NaN NaN 7.353406e-4 2.690429e-4 NaN NaN
 -6.476899e-4 -5.592598e-4 NaN NaN -4.896341e-2 9.506258e-2 NaN NaN
 2.774824e-4 8.279332e-4 NaN NaN 5.460523e-1 -8.128894e-1 NaN NaN
1.640000e9 -1.047080e-1 -2.315994e-2 NaN NaN -6.880580e-4 -5.806277e-4 NaN NaN
 6.858195e-1 -6.999440e-1 NaN NaN 7.529661e-4 2.510244e-4 NaN NaN
 -6.733964e-4 -5.616936e-4 NaN NaN -4.823281e-2 9.565426e-2 NaN NaN
 2.693148e-4 8.521344e-4 NaN NaN 5.388384e-1 -8.174869e-1 NaN NaN
1.650000e9 -1.047665e-1 -2.259317e-2 NaN NaN -7.100392e-4 -5.762185e-4 NaN NaN
 6.816948e-1 -7.031186e-1 NaN NaN 7.606678e-4 2.310194e-4 NaN NaN
 -6.951834e-4 -5.561220e-4 NaN NaN -4.751586e-2 9.561948e-2 NaN NaN
 2.748542e-4 8.798983e-4 NaN NaN 5.316154e-1 -8.213741e-1 NaN NaN
1.660000e9 -1.051847e-1 -2.231502e-2 NaN NaN -7.243283e-4 -5.697345e-4 NaN NaN
 6.779023e-1 -7.059745e-1 NaN NaN 7.607777e-4 2.173211e-4 NaN NaN
 -7.084557e-4 -5.486338e-4 NaN NaN -4.728719e-2 9.522322e-2 NaN NaN
 2.916948e-4 8.994894e-4 NaN NaN 5.248756e-1 -8.248046e-1 NaN NaN
1.670000e9 -1.060556e-1 -2.193554e-2 NaN NaN -7.322679e-4 -5.680628e-4 NaN NaN
 6.745422e-1 -7.088910e-1 NaN NaN 7.611786e-4 2.134162e-4 NaN NaN
 -7.149724e-4 -5.466851e-4 NaN NaN -4.764302e-2 9.499458e-2 NaN NaN
 3.092718e-4 9.052841e-4 NaN NaN 5.187362e-1 -8.283136e-1 NaN NaN
1.680000e9 -1.071399e-1 -2.113793e-2 NaN NaN -7.400457e-4 -5.745876e-4 NaN NaN
 6.713881e-1 -7.121835e-1 NaN NaN 7.695887e-4 2.154485e-4 NaN NaN
 -7.216254e-4 -5.537033e-4 NaN NaN -4.823948e-2 9.534030e-2 NaN NaN
 3.165203e-4 9.018306e-4 NaN NaN 5.128626e-1 -8.323285e-1 NaN NaN
1.690000e9 -1.080448e-1 -1.990508e-2 NaN NaN -7.542511e-4 -5.867017e-4 NaN NaN
 6.680568e-1 -7.158781e-1 NaN NaN 7.879631e-4 2.150051e-4 NaN NaN
 -7.354891e-4 -5.665655e-4 NaN NaN -4.854875e-2 9.625404e-2 NaN NaN
 3.098835e-4 9.005466e-4 NaN NaN 5.067175e-1 -8.368626e-1 NaN NaN
1.700000e9 -1.085097e-1 -1.852609e-2 NaN NaN -7.771026e-4 -5.976425e-4 NaN NaN
 6.642864e-1 -7.196989e-1 NaN NaN 8.110682e-4 2.052079e-4 NaN NaN
 -7.586936e-4 -5.778041e-4 NaN NaN -4.824235e-2 9.732863e-2 NaN NaN
 2.958787e-4 9.114511e-4 NaN NaN 4.999519e-1 -8.415142e-1 NaN NaN
1.710000e9 -1.085909e-1 -1.738231e-2 NaN NaN -8.048009e-4 -6.013588e-4 NaN NaN
 6.601224e-1 -7.232716e-1 NaN NaN 8.302671e-4 1.856985e-4 NaN NaN
 -7.868387e-4 -5.809855e-4 NaN NaN -4.742358e-2 9.805636e-2 NaN NaN
 2.863679e-4 9.359156e-4 NaN NaN 4.926528e-1 -8.457625e-1 NaN NaN
1.720000e9 -1.086155e-1 -1.667093e-2 NaN NaN -8.302351e-4 -5.969081e-4 NaN NaN
 6.558791e-1 -7.263951e-1 NaN NaN 8.397769e-4 1.629032e-4 NaN NaN
 -8.121341e-4 -5.753874e-4 NaN NaN -4.654480e-2 9.819580e-2 NaN NaN
 2.899618e-4 9.656863e-4 NaN NaN 4.852729e-1 -8.493453e-1 NaN NaN
1.730000e9 -1.089400e-1 -1.626646e-2 NaN NaN -8.481181e-4 -5.891881e-4 NaN NaN
 6.519083e-1 -7.291824e-1 NaN NaN 8.408673e-4 1.453773e-4 NaN NaN
 -8.290296e-4 -5.665714e-4 NaN NaN -4.607513e-2 9.794013e-2 NaN NaN
 3.057903e-4 9.888777e-4 NaN NaN 4.782987e-1 -8.524428e-1 NaN NaN
1.740000e9 -1.096935e-1 -1.581718e-2 NaN NaN -8.588510e-4 -5.854341e-4 NaN NaN
 6.483456e-1 -7.319733e-1 NaN NaN 8.409504e-4 1.375970e-4 NaN NaN
 -8.382696e-4 -5.623995e-4 NaN NaN -4.616228e-2 9.776940e-2 NaN NaN
 3.241445e-4 9.985865e-4 NaN NaN 4.719000e-1 -8.555404e-1 NaN NaN
1.750000e9 -1.106886e-1 -1.500247e-2 NaN NaN -8.682934e-4 -5.899822e-4 NaN NaN
 6.450171e-1 -7.350858e-1 NaN NaN 8.482138e-4 1.366990e-4 NaN NaN
 -8.464169e-4 -5.673445e-4 NaN NaN -4.653206e-2 9.809905e-2 NaN NaN
 3.335144e-4 9.978897e-4 NaN NaN 4.658128e-1 -8.590741e-1 NaN NaN
1.760000e9 -1.115621e-1 -1.376321e-2 NaN NaN -8.835667e-4 -6.010852e-4 NaN NaN
 6.415701e-1 -7.385878e-1 NaN NaN 8.656808e-4 1.345373e-4 NaN NaN
 -8.611489e-4 -5.792036e-4 NaN NaN -4.669346e-2 9.898142e-2 NaN NaN
 3.289252e-4 9.976163e-4 NaN NaN 4.595375e-1 -8.631173e-1 NaN NaN
1.770000e9 -1.120393e-1 -1.233975e-2 NaN NaN -9.078948e-4 -6.121143e-4 NaN NaN
 6.377299e-1 -7.422527e-1 NaN NaN 8.890047e-4 1.235757e-4 NaN NaN
 -8.856943e-4 -5.906251e-4 NaN NaN -4.629616e-2 1.000740e-1 NaN NaN
 3.155403e-4 1.008506e-3 NaN NaN 4.527025e-1 -8.673340e-1 NaN NaN
1.780000e9 -1.121309e-1 -1.109357e-2 NaN NaN -9.382223e-4 -6.163228e-4 NaN NaN
 6.334965e-1 -7.457274e-1 NaN NaN 9.096035e-4 1.023504e-4 NaN NaN
 -9.164409e-4 -5.943962e-4 NaN NaN -4.538037e-2 1.008928e-1 NaN NaN
 3.049190e-4 1.033433e-3 NaN NaN 4.453301e-1 -8.712277e-1 NaN NaN
1.790000e9 -1.121198e-1 -1.024460e-2 NaN NaN -9.673709e-4 -6.117495e-4 NaN NaN
 6.291390e-1 -7.487891e-1 NaN NaN 9.208738e-4 7.654082e-5 NaN NaN
 -9.454941e-4 -5.886879e-4 NaN NaN -4.434110e-2 1.011626e-1 NaN NaN
 3.066372e-4 1.065328e-3 NaN NaN 4.378144e-1 -8.745015e-1 NaN NaN
1.800000e9 -1.123527e-1 -9.715166e-3 NaN NaN -9.892221e-4 -6.026969e-4 NaN NaN
 6.249981e-1 -7.515028e-1 NaN NaN 9.229834e-4 5.486248e-5 NaN NaN
 -9.663804e-4 -5.784403e-4 NaN NaN -4.363743e-2 1.010117e-1 NaN NaN
 3.213519e-4 1.092319e-3 NaN NaN 4.306315e-1 -8.772690e-1 NaN NaN
1.810000e9 -1.129892e-1 -9.191001e-3 NaN NaN -1.003189e-3 -5.966655e-4 NaN NaN
 6.212390e-1 -7.541695e-1 NaN NaN 9.227630e-4 4.274957e-5 NaN NaN
 -9.787779e-4 -5.718359e-4 NaN NaN -4.346057e-2 1.008720e-1 NaN NaN
 3.403379e-4 1.106335e-3 NaN NaN 4.239957e-1 -8.799663e-1 NaN NaN
1.820000e9 -1.138894e-1 -8.351662e-3 NaN NaN -1.014711e-3 -5.989196e-4 NaN NaN
 6.177358e-1 -7.571059e-1 NaN NaN 9.287668e-4 3.840910e-5 NaN NaN
 -9.888237e-4 -5.743714e-4 NaN NaN -4.360038e-2 1.011620e-1 NaN NaN
 3.518248e-4 1.108953e-3 NaN NaN 4.177089e-1 -8.830326e-1 NaN NaN
1.830000e9 -1.147200e-1 -7.101588e-3 NaN NaN -1.031357e-3 -6.086147e-4 NaN NaN
 6.141671e-1 -7.604158e-1 NaN NaN 9.450818e-4 3.411398e-5 NaN NaN
 -1.004716e-3 -5.848116e-4 NaN NaN -4.360340e-2 1.019851e-1 NaN NaN
 3.495357e-4 1.110234e-3 NaN NaN 4.113097e-1 -8.865939e-1 NaN NaN
1.840000e9 -1.151972e-1 -5.635450e-3 NaN NaN -1.057316e-3 -6.193359e-4 NaN NaN
 6.102502e-1 -7.639189e-1 NaN NaN 9.683818e-4 2.180053e-5 NaN NaN
 -1.030747e-3 -5.960002e-4 NaN NaN -4.310364e-2 1.030592e-1 NaN NaN
 3.372255e-4 1.121392e-3 NaN NaN 4.044098e-1 -8.903765e-1 NaN NaN
1.850000e9 -1.152907e-1 -4.293229e-3 NaN NaN -1.090272e-3 -6.237233e-4 NaN NaN
 6.059442e-1 -7.672851e-1 NaN NaN 9.903722e-4 -1.096474e-6 NaN NaN
 -1.064097e-3 -6.000160e-4 NaN NaN -4.208524e-2 1.039256e-1 NaN NaN
 3.259087e-4 1.146627e-3 NaN NaN 3.969732e-1 -8.939097e-1 NaN NaN
1.860000e9 -1.152418e-1 -3.312684e-3 NaN NaN -1.122994e-3 -6.188778e-4 NaN NaN
 6.014757e-1 -7.702746e-1 NaN NaN 1.003852e-3 -2.982215e-5 NaN NaN
 -1.096773e-3 -5.939861e-4 NaN NaN -4.088882e-2 1.042819e-1 NaN NaN
 3.257750e-4 1.180075e-3 NaN NaN 3.893375e-1 -8.968677e-1 NaN NaN
1.870000e9 -1.153844e-1 -2.659395e-3 NaN NaN -1.148564e-3 -6.086119e-4 NaN NaN
 5.971712e-1 -7.729089e-1 NaN NaN 1.007974e-3 -5.583413e-5 NaN NaN
 -1.121384e-3 -5.823208e-4 NaN NaN -3.996083e-2 1.041973e-1 NaN NaN
 3.386851e-4 1.210126e-3 NaN NaN 3.819658e-1 -8.993022e-1 NaN NaN
1.880000e9 -1.159034e-1 -2.055776e-3 NaN NaN -1.165505e-3 -6.008321e-4 NaN NaN
 5.932205e-1 -7.754513e-1 NaN NaN 1.008849e-3 -7.312470e-5 NaN NaN
 -1.136603e-3 -5.736717e-4 NaN NaN -3.953042e-2 1.040567e-1 NaN NaN
 3.567431e-4 1.227993e-3 NaN NaN 3.751122e-1 -9.015998e-1 NaN NaN
1.890000e9 -1.167028e-1 -1.184953e-3 NaN NaN -1.179062e-3 -6.018568e-4 NaN NaN
 5.895424e-1 -7.782135e-1 NaN NaN 1.015022e-3 -8.270749e-5 NaN NaN
 -1.148335e-3 -5.747231e-4 NaN NaN -3.944759e-2 1.042789e-1 NaN NaN
 3.680351e-4 1.234290e-3 NaN NaN 3.686419e-1 -9.041996e-1 NaN NaN
1.900000e9 -1.174795e-1 8.003655e-5 NaN NaN -1.197618e-3 -6.117377e-4 NaN NaN
 5.858469e-1 -7.813304e-1 NaN NaN 1.031097e-3 -9.195144e-5 NaN NaN
 -1.165659e-3 -5.852608e-4 NaN NaN -3.929692e-2 1.050138e-1 NaN NaN
 3.654076e-4 1.238774e-3 NaN NaN 3.621344e-1 -9.072759e-1 NaN NaN
1.910000e9 -1.179445e-1 1.587265e-3 NaN NaN -1.226735e-3 -6.240047e-4 NaN NaN
 5.818474e-1 -7.846654e-1 NaN NaN 1.054195e-3 -1.091916e-4 NaN NaN
 -1.194379e-3 -5.981172e-4 NaN NaN -3.870065e-2 1.060383e-1 NaN NaN
 3.518986e-4 1.253362e-3 NaN NaN 3.551905e-1 -9.106176e-1 NaN NaN
1.920000e9 -1.180316e-1 3.019438e-3 NaN NaN -1.265088e-3 -6.301170e-4 NaN NaN
 5.774670e-1 -7.879131e-1 NaN NaN 1.075887e-3 -1.375181e-4 NaN NaN
 -1.232787e-3 -6.041306e-4 NaN NaN -3.758999e-2 1.069225e-1 NaN NaN
 3.387982e-4 1.283421e-3 NaN NaN 3.477195e-1 -9.137857e-1 NaN NaN
1.930000e9 -1.179419e-1 4.125302e-3 NaN NaN -1.305262e-3 -6.254991e-4 NaN NaN
 5.728907e-1 -7.908211e-1 NaN NaN 1.088287e-3 -1.723015e-4 NaN NaN
 -1.272756e-3 -5.986321e-4 NaN NaN -3.624981e-2 1.073417e-1 NaN NaN
 3.376353e-4 1.323663e-3 NaN NaN 3.400001e-1 -9.164334e-1 NaN NaN
1.940000e9 -1.179950e-1 4.900222e-3 NaN NaN -1.338935e-3 -6.128418e-4 NaN NaN
 5.684286e-1 -7.933715e-1 NaN NaN 1.089892e-3 -2.043478e-4 NaN NaN
 -1.305448e-3 -5.848052e-4 NaN NaN -3.510776e-2 1.073087e-1 NaN NaN
 3.518305e-4 1.361719e-3 NaN NaN 3.324741e-1 -9.185550e-1 NaN NaN
1.950000e9 -1.183967e-1 5.586248e-3 NaN NaN -1.362780e-3 -6.002469e-4 NaN NaN
 5.642904e-1 -7.957904e-1 NaN NaN 1.086894e-3 -2.264859e-4 NaN NaN
 -1.327599e-3 -5.714574e-4 NaN NaN -3.442364e-2 1.071582e-1 NaN NaN
 3.740768e-4 1.386899e-3 NaN NaN 3.254247e-1 -9.204852e-1 NaN NaN
1.960000e9 -1.190914e-1 6.494142e-3 NaN NaN -1.380852e-3 -5.954792e-4 NaN NaN
 5.604359e-1 -7.983811e-1 NaN NaN 1.088905e-3 -2.388392e-4 NaN NaN
 -1.343857e-3 -5.667459e-4 NaN NaN -3.410454e-2 1.073004e-1 NaN NaN
 3.914148e-4 1.397871e-3 NaN NaN 3.187744e-1 -9.226525e-1 NaN NaN
1.970000e9 -1.198060e-1 7.778144e-3 NaN NaN -1.401705e-3 -6.004159e-4 NaN NaN
 5.566070e-1 -8.013051e-1 NaN NaN 1.102104e-3 -2.489131e-4 NaN NaN
 -1.363455e-3 -5.723312e-4 NaN NaN -3.377721e-2 1.079223e-1 NaN NaN
 3.944310e-4 1.403702e-3 NaN NaN 3.121451e-1 -9.252682e-1 NaN NaN
1.980000e9 -1.202494e-1 9.326512e-3 NaN NaN -1.432253e-3 -6.096925e-4 NaN NaN
 5.525168e-1 -8.044667e-1 NaN NaN 1.124737e-3 -2.663398e-4 NaN NaN
 -1.393576e-3 -5.821729e-4 NaN NaN -3.306200e-2 1.088559e-1 NaN NaN
 3.839920e-4 1.417446e-3 NaN NaN 3.051360e-1 -9.281755e-1 NaN NaN
1.990000e9 -1.203230e-1 1.084546e-2 NaN NaN -1.472785e-3 -6.145627e-4 NaN NaN
 5.480567e-1 -8.075857e-1 NaN NaN 1.148279e-3 -2.960051e-4 NaN NaN
 -1.434144e-3 -5.868823e-4 NaN NaN -3.184763e-2 1.097031e-1 NaN NaN
 3.706405e-4 1.446819e-3 NaN NaN 2.976132e-1 -9.309671e-1 NaN NaN
2.000000e9 -1.201897e-1 1.207367e-2 NaN NaN -1.516728e-3 -6.092322e-4 NaN NaN
 5.433725e-1 -8.104016e-1 NaN NaN 1.163500e-3 -3.345112e-4 NaN NaN
 -1.477851e-3 -5.805353e-4 NaN NaN -3.036861e-2 1.101266e-1 NaN NaN
 3.670296e-4 1.488675e-3 NaN NaN 2.898050e-1 -9.332822e-1 NaN NaN
2.010000e9 -1.201528e-1 1.297073e-2 NaN NaN -1.555397e-3 -5.951062e-4 NaN NaN
 5.387560e-1 -8.128609e-1 NaN NaN 1.167105e-3 -3.725822e-4 NaN NaN
 -1.515440e-3 -5.650257e-4 NaN NaN -2.903168e-2 1.100926e-1 NaN NaN
 3.788096e-4 1.531285e-3 NaN NaN 2.821330e-1 -9.350668e-1 NaN NaN
2.020000e9 -1.204354e-1 1.374379e-2 NaN NaN -1.584338e-3 -5.798424e-4 NaN NaN
 5.344329e-1 -8.151533e-1 NaN NaN 1.164151e-3 -4.017449e-4 NaN NaN
 -1.542465e-3 -5.487691e-4 NaN NaN -2.811986e-2 1.098912e-1 NaN NaN
 4.005380e-4 1.562814e-3 NaN NaN 2.749059e-1 -9.366104e-1 NaN NaN
2.030000e9 -1.210196e-1 1.469500e-2 NaN NaN -1.606657e-3 -5.718323e-4 NaN NaN
 5.304006e-1 -8.175718e-1 NaN NaN 1.164440e-3 -4.204938e-4 NaN NaN
 -1.562628e-3 -5.406345e-4 NaN NaN -2.758931e-2 1.099227e-1 NaN NaN
 4.195905e-4 1.579909e-3 NaN NaN 2.680972e-1 -9.383328e-1 NaN NaN
2.040000e9 -1.216624e-1 1.600215e-2 NaN NaN -1.630894e-3 -5.740685e-4 NaN NaN
 5.264332e-1 -8.203002e-1 NaN NaN 1.175433e-3 -4.354644e-4 NaN NaN
 -1.585219e-3 -5.434599e-4 NaN NaN -2.710487e-2 1.104066e-1 NaN NaN
 4.252859e-4 1.590187e-3 NaN NaN 2.613682e-1 -9.404799e-1 NaN NaN
2.050000e9 -1.220736e-1 1.759148e-2 NaN NaN -1.664890e-3 -5.818544e-4 NaN NaN
 5.222462e-1 -8.232817e-1 NaN NaN 1.196790e-3 -4.567070e-4 NaN NaN
 -1.618438e-3 -5.518658e-4 NaN NaN -2.628577e-2 1.112242e-1 NaN NaN
 4.166557e-4 1.606793e-3 NaN NaN 2.543153e-1 -9.429473e-1 NaN NaN
2.060000e9 -1.221261e-1 1.919371e-2 NaN NaN -1.710065e-3 -5.860870e-4 NaN NaN
 5.177030e-1 -8.262625e-1 NaN NaN 1.220524e-3 -4.904281e-4 NaN NaN
 -1.663408e-3 -5.560294e-4 NaN NaN -2.498166e-2 1.120078e-1 NaN NaN
 4.032237e-4 1.638910e-3 NaN NaN 2.467632e-1 -9.453588e-1 NaN NaN
2.070000e9 -1.219458e-1 2.054081e-2 NaN NaN -1.760287e-3 -5.798107e-4 NaN NaN
 5.129113e-1 -8.289768e-1 NaN NaN 1.236708e-3 -5.344418e-4 NaN NaN
 -1.713243e-3 -5.487666e-4 NaN NaN -2.337909e-2 1.124089e-1 NaN NaN
 3.981739e-4 1.685075e-3 NaN NaN 2.388891e-1 -9.473409e-1 NaN NaN
2.080000e9 -1.218184e-1 2.155991e-2 NaN NaN -1.806224e-3 -5.633218e-4 NaN NaN
 5.081429e-1 -8.313387e-1 NaN NaN 1.240677e-3 -5.796732e-4 NaN NaN
 -1.757952e-3 -5.308110e-4 NaN NaN -2.186336e-2 1.123496e-1 NaN NaN
 4.088071e-4 1.734176e-3 NaN NaN 2.310926e-1 -9.487928e-1 NaN NaN
2.090000e9 -1.219805e-1 2.242409e-2 NaN NaN -1.842118e-3 -5.440734e-4 NaN NaN
 5.036360e-1 -8.335023e-1 NaN NaN 1.236482e-3 -6.166981e-4 NaN NaN
 -1.791694e-3 -5.104048e-4 NaN NaN -2.073799e-2 1.120757e-1 NaN NaN
 4.311947e-4 1.773463e-3 NaN NaN 2.237045e-1 -9.499571e-1 NaN NaN
2.100000e9 -1.224493e-1 2.342473e-2 NaN NaN -1.870079e-3 -5.313538e-4 NaN NaN
 4.994234e-1 -8.357477e-1 NaN NaN 1.234042e-3 -6.426257e-4 NaN NaN
 -1.817137e-3 -4.974051e-4 NaN NaN -2.000616e-2 1.119754e-1 NaN NaN
 4.529435e-4 1.797821e-3 NaN NaN 2.167483e-1 -9.512415e-1 NaN NaN
2.110000e9 -1.230119e-1 2.475976e-2 NaN NaN -1.898709e-3 -5.295235e-4 NaN NaN
 4.953108e-1 -8.382777e-1 NaN NaN 1.241987e-3 -6.633143e-4 NaN NaN
 -1.843679e-3 -4.961030e-4 NaN NaN -1.937158e-2 1.122969e-1 NaN NaN
 4.621325e-4 1.813573e-3 NaN NaN 2.099258e-1 -9.529224e-1 NaN NaN
2.120000e9 -1.233815e-1 2.639128e-2 NaN NaN -1.936973e-3 -5.347172e-4 NaN NaN
 4.910196e-1 -8.410722e-1 NaN NaN 1.261330e-3 -6.892432e-4 NaN NaN
 -1.880745e-3 -5.019681e-4 NaN NaN -1.845591e-2 1.129690e-1 NaN NaN
 4.559930e-4 1.834019e-3 NaN NaN 2.028357e-1 -9.549463e-1 NaN NaN
2.130000e9 -1.234056e-1 2.807516e-2 NaN NaN -1.987676e-3 -5.374842e-4 NaN NaN
 4.863882e-1 -8.439045e-1 NaN NaN 1.284607e-3 -7.279569e-4 NaN NaN
 -1.930911e-3 -5.047669e-4 NaN NaN -1.707360e-2 1.136562e-1 NaN NaN
 4.430250e-4 1.869852e-3 NaN NaN 1.952644e-1 -9.569701e-1 NaN NaN
2.140000e9 -1.231749e-1 2.953957e-2 NaN NaN -2.045309e-3 -5.295590e-4 NaN NaN
 4.814876e-1 -8.465071e-1 NaN NaN 1.301179e-3 -7.785358e-4 NaN NaN
 -1.987915e-3 -4.959066e-4 NaN NaN -1.536467e-2 1.140025e-1 NaN NaN
 4.369414e-4 1.921371e-3 NaN NaN 1.873400e-1 -9.586122e-1 NaN NaN
2.150000e9 -1.229556e-1 3.068208e-2 NaN NaN -2.099919e-3 -5.099064e-4 NaN NaN
 4.765682e-1 -8.487645e-1 NaN NaN 1.304936e-3 -8.321567e-4 NaN NaN
 -2.041067e-3 -4.747275e-4 NaN NaN -1.369084e-2 1.138896e-1 NaN NaN
 4.467530e-4 1.978173e-3 NaN NaN 1.794370e-1 -9.597283e-1 NaN NaN
2.160000e9 -1.229953e-1 3.164241e-2 NaN NaN -2.144309e-3 -4.856122e-4 NaN NaN
 4.718772e-1 -8.507958e-1 NaN NaN 1.298819e-3 -8.784296e-4 NaN NaN
 -2.082989e-3 -4.491262e-4 NaN NaN -1.237200e-2 1.135200e-1 NaN NaN
 4.701676e-4 2.026627e-3 NaN NaN 1.719042e-1 -9.605146e-1 NaN NaN
2.170000e9 -1.233435e-1 3.269937e-2 NaN NaN -2.179381e-3 -4.668608e-4 NaN NaN
 4.674800e-1 -8.528658e-1 NaN NaN 1.292801e-3 -9.129832e-4 NaN NaN
 -2.115094e-3 -4.299439e-4 NaN NaN -1.145526e-2 1.132669e-1 NaN NaN
 4.951383e-4 2.059781e-3 NaN NaN 1.648122e-1 -9.613634e-1 NaN NaN
2.180000e9 -1.238176e-1 3.406796e-2 NaN NaN -2.213675e-3 -4.595384e-4 NaN NaN
 4.632148e-1 -8.551933e-1 NaN NaN 1.296712e-3 -9.407834e-4 NaN NaN
 -2.146759e-3 -4.230892e-4 NaN NaN -1.068330e-2 1.134030e-1 NaN NaN
 5.085243e-4 2.082525e-3 NaN NaN 1.579044e-1 -9.625780e-1 NaN NaN
2.190000e9 -1.241365e-1 3.574425e-2 NaN NaN -2.257323e-3 -4.608144e-4 NaN NaN
 4.588109e-1 -8.577927e-1 NaN NaN 1.313034e-3 -9.726917e-4 NaN NaN
 -2.188666e-3 -4.250941e-4 NaN NaN -9.683439e-3 1.139027e-1 NaN NaN
 5.056537e-4 2.108206e-3 NaN NaN 1.507846e-1 -9.641532e-1 NaN NaN
2.200000e9 -1.241250e-1 3.750989e-2 NaN NaN -2.314702e-3 -4.609897e-4 NaN NaN
 4.540850e-1 -8.604658e-1 NaN NaN 1.334943e-3 -1.017660e-3 NaN NaN
 -2.245051e-3 -4.254199e-4 NaN NaN -8.238731e-3 1.144631e-1 NaN NaN
 4.938463e-4 2.149043e-3 NaN NaN 1.432050e-1 -9.657811e-1 NaN NaN
2.210000e9 -1.238398e-1 3.909188e-2 NaN NaN -2.381132e-3 -4.504053e-4 NaN NaN
 4.490728e-1 -8.629457e-1 NaN NaN 1.351108e-3 -1.076179e-3 NaN NaN
 -2.310483e-3 -4.139801e-4 NaN NaN -6.444283e-3 1.147246e-1 NaN NaN
 4.872510e-4 2.207237e-3 NaN NaN 1.352454e-1 -9.670753e-1 NaN NaN
2.220000e9 -1.235268e-1 4.036082e-2 NaN NaN -2.446110e-3 -4.264788e-4 NaN NaN
 4.440014e-1 -8.650906e-1 NaN NaN 1.353869e-3 -1.139794e-3 NaN NaN
 -2.373649e-3 -3.884990e-4 NaN NaN -4.636463e-3 1.145321e-1 NaN NaN
 4.966410e-4 2.273266e-3 NaN NaN 1.272533e-1 -9.678513e-1 NaN NaN
2.230000e9 -1.234415e-1 4.142379e-2 NaN NaN -2.500883e-3 -3.957336e-4 NaN NaN
 4.391240e-1 -8.669848e-1 NaN NaN 1.344892e-3 -1.197140e-3 NaN NaN
 -2.425513e-3 -3.563247e-4 NaN NaN -3.147844e-3 1.140450e-1 NaN NaN
 5.215308e-4 2.332687e-3 NaN NaN 1.195918e-1 -9.682590e-1 NaN NaN
2.240000e9 -1.236637e-1 4.254527e-2 NaN NaN -2.544918e-3 -3.692169e-4 NaN NaN
 4.345365e-1 -8.688759e-1 NaN NaN 1.334103e-3 -1.242233e-3 NaN NaN
 -2.466001e-3 -3.292482e-4 NaN NaN -2.066540e-3 1.136198e-1 NaN NaN
 5.503871e-4 2.376625e-3 NaN NaN 1.123761e-1 -9.686728e-1 NaN NaN
2.250000e9 -1.240408e-1 4.395459e-2 NaN NaN -2.586524e-3 -3.544984e-4 NaN NaN
 4.301094e-1 -8.709951e-1 NaN NaN 1.332575e-3 -1.278981e-3 NaN NaN
 -2.504288e-3 -3.149580e-4 NaN NaN -1.174286e-3 1.135496e-1 NaN NaN
 5.688867e-4 2.408351e-3 NaN NaN 1.053913e-1 -9.694190e-1 NaN NaN
2.260000e9 -1.242995e-1 4.568010e-2 NaN NaN -2.637019e-3 -3.500164e-4 NaN NaN
 4.255828e-1 -8.733903e-1 NaN NaN 1.344421e-3 -1.318560e-3 NaN NaN
 -2.552339e-3 -3.112906e-4 NaN NaN -1.069365e-4 1.138522e-1 NaN NaN
 5.703277e-4 2.441110e-3 NaN NaN 9.825000e-2 -9.705395e-1 NaN NaN
2.270000e9 -1.242448e-1 4.752980e-2 NaN NaN -2.702557e-3 -3.459590e-4 NaN NaN
 4.207546e-1 -8.758919e-1 NaN NaN 1.363615e-3 -1.371417e-3 NaN NaN
 -2.616253e-3 -3.075427e-4 NaN NaN 1.380322e-3 1.142582e-1 NaN NaN
 5.606466e-4 2.488654e-3 NaN NaN 9.067342e-2 -9.717623e-1 NaN NaN
2.280000e9 -1.239006e-1 4.923193e-2 NaN NaN -2.779528e-3 -3.311998e-4 NaN NaN
 4.156261e-1 -8.782373e-1 NaN NaN 1.378166e-3 -1.439648e-3 NaN NaN
 -2.691684e-3 -2.920592e-4 NaN NaN 3.235797e-3 1.144078e-1 NaN NaN
 5.543044e-4 2.555262e-3 NaN NaN 8.269374e-2 -9.727000e-1 NaN NaN
2.290000e9 -1.234912e-1 5.063256e-2 NaN NaN -2.856985e-3 -3.013688e-4 NaN NaN
 4.103996e-1 -8.802603e-1 NaN NaN 1.378731e-3 -1.515315e-3 NaN NaN
 -2.766801e-3 -2.607016e-4 NaN NaN 5.150018e-3 1.141119e-1 NaN NaN
 5.638913e-4 2.632501e-3 NaN NaN 7.462977e-2 -9.731304e-1 NaN NaN
2.300000e9 -1.232774e-1 5.180674e-2 NaN NaN -2.924497e-3 -2.621888e-4 NaN NaN
 4.053312e-1 -8.820110e-1 NaN NaN 1.365489e-3 -1.586079e-3 NaN NaN
 -2.830787e-3 -2.200251e-4 NaN NaN 6.781160e-3 1.134881e-1 NaN NaN
 5.909333e-4 2.705216e-3 NaN NaN 6.685521e-2 -9.731576e-1 NaN NaN
2.310000e9 -1.233674e-1 5.300303e-2 NaN NaN -2.979839e-3 -2.255099e-4 NaN NaN
 4.005452e-1 -8.837177e-1 NaN NaN 1.348187e-3 -1.644174e-3 NaN NaN
 -2.881813e-3 -1.827095e-4 NaN NaN 8.002765e-3 1.128733e-1 NaN NaN
 6.246175e-4 2.762514e-3 NaN NaN 5.952760e-2 -9.731353e-1 NaN NaN
2.320000e9 -1.236384e-1 5.446256e-2 NaN NaN -3.030878e-3 -2.007525e-4 NaN NaN
 3.959449e-1 -8.856213e-1 NaN NaN 1.339188e-3 -1.692245e-3 NaN NaN
 -2.928640e-3 -1.583953e-4 NaN NaN 8.994021e-3 1.125783e-1 NaN NaN
 6.494922e-4 2.805818e-3 NaN NaN 5.247478e-2 -9.734096e-1 NaN NaN
2.330000e9 -1.238271e-1 5.624433e-2 NaN NaN -3.090120e-3 -1.878983e-4 NaN NaN
 3.912835e-1 -8.878009e-1 NaN NaN 1.344433e-3 -1.741686e-3 NaN NaN
 -2.984516e-3 -1.465053e-4 NaN NaN 1.010789e-2 1.126618e-1 NaN NaN
 6.566792e-4 2.848091e-3 NaN NaN 4.532068e-2 -9.740678e-1 NaN NaN
2.340000e9 -1.237210e-1 5.818331e-2 NaN NaN -3.165724e-3 -1.771964e-4 NaN NaN
 3.863428e-1 -8.901173e-1 NaN NaN 1.358901e-3 -1.804551e-3 NaN NaN
 -3.057633e-3 -1.363501e-4 NaN NaN 1.161381e-2 1.128890e-1 NaN NaN
 6.504909e-4 2.904625e-3 NaN NaN 3.775872e-2 -9.748754e-1 NaN NaN
2.350000e9 -1.233122e-1 6.001125e-2 NaN NaN -3.255446e-3 -1.559834e-4 NaN NaN
 3.810908e-1 -8.923143e-1 NaN NaN 1.369980e-3 -1.884773e-3 NaN NaN
 -3.145032e-3 -1.146354e-4 NaN NaN 1.350209e-2 1.129026e-1 NaN NaN
 6.455452e-4 2.981971e-3 NaN NaN 2.977434e-2 -9.754470e-1 NaN NaN
2.360000e9 -1.228024e-1 6.155194e-2 NaN NaN -3.348030e-3 -1.178237e-4 NaN NaN
 3.757033e-1 -8.942042e-1 NaN NaN 1.366483e-3 -1.975134e-3 NaN NaN
 -3.234506e-3 -7.507686e-5 NaN NaN 1.549159e-2 1.124827e-1 NaN NaN
 6.563084e-4 3.073048e-3 NaN NaN 2.165539e-2 -9.755255e-1 NaN NaN
2.370000e9 -1.224554e-1 6.284896e-2 NaN NaN -3.431248e-3 -6.734571e-5 NaN NaN
 3.704366e-1 -8.958030e-1 NaN NaN 1.346839e-3 -2.062321e-3 NaN NaN
 -3.313331e-3 -2.313789e-5 NaN NaN 1.723438e-2 1.117054e-1 NaN NaN
 6.865584e-4 3.162111e-3 NaN NaN 1.378308e-2 -9.751690e-1 NaN NaN
2.380000e9 -1.224055e-1 6.413343e-2 NaN NaN -3.500877e-3 -1.710887e-5 NaN NaN
 3.654409e-1 -8.973176e-1 NaN NaN 1.320440e-3 -2.136588e-3 NaN NaN
 -3.377612e-3 2.770730e-5 NaN NaN 1.856811e-2 1.108864e-1 NaN NaN
 7.264546e-4 3.236141e-3 NaN NaN 6.355368e-3 -9.747079e-1 NaN NaN
2.390000e9 -1.225602e-1 6.565588e-2 NaN NaN -3.564078e-3 2.143461e-5 NaN NaN
 3.606528e-1 -8.989954e-1 NaN NaN 1.300988e-3 -2.199047e-3 NaN NaN
 -3.435425e-3 6.568113e-5 NaN NaN 1.963285e-2 1.103507e-1 NaN NaN
 7.594914e-4 3.294455e-3 NaN NaN -7.565193e-4 -9.745051e-1 NaN NaN
2.400000e9 -1.226678e-1 6.750453e-2 NaN NaN -3.634532e-3 4.643505e-5 NaN NaN
 3.558413e-1 -9.009456e-1 NaN NaN 1.296494e-3 -2.261195e-3 NaN NaN
 -3.501286e-3 8.944316e-5 NaN NaN 2.076791e-2 1.101964e-1 NaN NaN
 7.744500e-4 3.349509e-3 NaN NaN -7.914238e-3 -9.746919e-1 NaN NaN
2.410000e9 -1.225006e-1 6.954190e-2 NaN NaN -3.722659e-3 6.736071e-5 NaN NaN
 3.507749e-1 -9.030600e-1 NaN NaN 1.303194e-3 -2.336811e-3 NaN NaN
 -3.585744e-3 1.094423e-4 NaN NaN 2.226434e-2 1.102237e-1 NaN NaN
 7.737329e-4 3.418130e-3 NaN NaN -1.544953e-2 -9.750730e-1 NaN NaN
2.420000e9 -1.220201e-1 7.150545e-2 NaN NaN -3.827933e-3 9.847635e-5 NaN NaN
 3.453889e-1 -9.050920e-1 NaN NaN 1.307922e-3 -2.431968e-3 NaN NaN
 -3.687582e-3 1.406760e-4 NaN NaN 2.415318e-2 1.100807e-1 NaN NaN
 7.719249e-4 3.509377e-3 NaN NaN -2.342310e-2 -9.752679e-1 NaN NaN
2.430000e9 -1.214039e-1 7.319884e-2 NaN NaN -3.938985e-3 1.486113e-4 NaN NaN
 3.398312e-1 -9.068347e-1 NaN NaN 1.297447e-3 -2.540416e-3 NaN NaN
 -3.794412e-3 1.919064e-4 NaN NaN 2.618300e-2 1.095194e-1 NaN NaN
 7.854293e-4 3.617829e-3 NaN NaN -3.158019e-2 -9.749870e-1 NaN NaN
2.440000e9 -1.209168e-1 7.463468e-2 NaN NaN -4.041661e-3 2.145985e-4 NaN NaN
 3.343547e-1 -9.082702e-1 NaN NaN 1.268112e-3 -2.647888e-3 NaN NaN
 -3.891472e-3 2.591323e-4 NaN NaN 2.800268e-2 1.085751e-1 NaN NaN
 8.205601e-4 3.727314e-3 NaN NaN -3.953519e-2 -9.742420e-1 NaN NaN
2.450000e9 -1.207174e-1 7.602519e-2 NaN NaN -4.129378e-3 2.833104e-4 NaN NaN
 3.291340e-1 -9.095816e-1 NaN NaN 1.228725e-3 -2.742406e-3 NaN NaN
 -3.972437e-3 3.282263e-4 NaN NaN 2.941628e-2 1.075405e-1 NaN NaN
 8.687572e-4 3.822571e-3 NaN NaN -4.705149e-2 -9.733378e-1 NaN NaN
2.460000e9 -1.207433e-1 7.762800e-2 NaN NaN -4.208258e-3 3.410691e-4 NaN NaN
 3.241394e-1 -9.110200e-1 NaN NaN 1.194368e-3 -2.823221e-3 NaN NaN
 -4.044358e-3 3.850759e-4 NaN NaN 3.052465e-2 1.067517e-1 NaN NaN
 9.125658e-4 3.900502e-3 NaN NaN -5.421349e-2 -9.726507e-1 NaN NaN
2.470000e9 -1.207563e-1 7.955918e-2 NaN NaN -4.293109e-3 3.837687e-4 NaN NaN
 3.191580e-1 -9.127228e-1 NaN NaN 1.175422e-3 -2.901763e-3 NaN NaN
 -4.122971e-3 4.260294e-4 NaN NaN 3.165107e-2 1.063443e-1 NaN NaN
 9.382439e-4 3.972787e-3 NaN NaN -6.136548e-2 -9.723552e-1 NaN NaN
2.480000e9 -1.205159e-1 8.170942e-2 NaN NaN -4.396908e-3 4.203096e-4 NaN NaN
 3.139482e-1 -9.146143e-1 NaN NaN 1.169701e-3 -2.993685e-3 NaN NaN
 -4.221478e-3 4.610060e-4 NaN NaN 3.310540e-2 1.061545e-1 NaN NaN
 9.459460e-4 4.057767e-3 NaN NaN -6.886174e-2 -9.722967e-1 NaN NaN
2.490000e9 -1.199534e-1 8.382404e-2 NaN NaN -4.521285e-3 4.666142e-4 NaN NaN
 3.084134e-1 -9.164603e-1 NaN NaN 1.163574e-3 -3.107567e-3 NaN NaN
 -4.340847e-3 5.067612e-4 NaN NaN 3.495822e-2 1.058384e-1 NaN NaN
 9.499882e-4 4.167284e-3 NaN NaN -7.680883e-2 -9.721028e-1 NaN NaN
2.500000e9 -1.192220e-1 8.568866e-2 NaN NaN -4.655014e-3 5.342970e-4 NaN NaN
 3.026714e-1 -9.180374e-1 NaN NaN 1.141518e-3 -3.238460e-3 NaN NaN
 -4.468762e-3 5.749272e-4 NaN NaN 3.698913e-2 1.051224e-1 NaN NaN
 9.687722e-4 4.297955e-3 NaN NaN -8.498732e-2 -9.714534e-1 NaN NaN
2.510000e9 -1.185845e-1 8.728542e-2 NaN NaN -4.781889e-3 6.221198e-4 NaN NaN
 2.969688e-1 -9.192938e-1 NaN NaN 1.097365e-3 -3.371174e-3 NaN NaN
 -4.588300e-3 6.634331e-4 NaN NaN 3.884666e-2 1.040017e-1 NaN NaN
 1.011487e-3 4.433390e-3 NaN NaN -9.301029e-2 -9.703137e-1 NaN NaN
2.520000e9 -1.182223e-1 8.880624e-2 NaN NaN -4.892532e-3 7.165968e-4 NaN NaN
 2.915022e-1 -9.203861e-1 NaN NaN 1.039021e-3 -3.491202e-3 NaN NaN
 -4.690261e-3 7.577070e-4 NaN NaN 4.030339e-2 1.027438e-1 NaN NaN
 1.071236e-3 4.555969e-3 NaN NaN -1.006041e-1 -9.689597e-1 NaN NaN
2.530000e9 -1.181031e-1 9.051360e-2 NaN NaN -4.991597e-3 8.016220e-4 NaN NaN
 2.862761e-1 -9.215659e-1 NaN NaN 9.829864e-4 -3.595500e-3 NaN NaN
 -4.780244e-3 8.410953e-4 NaN NaN 4.142081e-2 1.016935e-1 NaN NaN
 1.129764e-3 4.659813e-3 NaN NaN -1.078074e-1 -9.677787e-1 NaN NaN
2.540000e9 -1.180040e-1 9.255012e-2 NaN NaN -5.094925e-3 8.703669e-4 NaN NaN
 2.810992e-1 -9.229973e-1 NaN NaN 9.423690e-4 -3.695205e-3 NaN NaN
 -4.875107e-3 9.071645e-4 NaN NaN 4.250390e-2 1.010220e-1 NaN NaN
 1.170608e-3 4.755488e-3 NaN NaN -1.149443e-1 -9.669875e-1 NaN NaN
2.550000e9 -1.176736e-1 9.483526e-2 NaN NaN -5.218390e-3 9.307970e-4 NaN NaN
 2.757222e-1 -9.246384e-1 NaN NaN 9.169739e-4 -3.808009e-3 NaN NaN
 -4.991045e-3 9.649324e-4 NaN NaN 4.387859e-2 1.006024e-1 NaN NaN
 1.191274e-3 4.862816e-3 NaN NaN -1.223890e-1 -9.664739e-1 NaN NaN
2.560000e9 -1.170143e-1 9.712435e-2 NaN NaN -5.366319e-3 1.000535e-3 NaN NaN
 2.700176e-1 -9.262708e-1 NaN NaN 8.928294e-4 -3.945464e-3 NaN NaN
 -5.131748e-3 1.032952e-3 NaN NaN 4.565390e-2 1.001014e-1 NaN NaN
 1.205513e-3 4.996733e-3 NaN NaN -1.302938e-1 -9.658768e-1 NaN NaN
2.570000e9 -1.161533e-1 9.918706e-2 NaN NaN -5.527977e-3 1.094457e-3 NaN NaN
 2.640709e-1 -9.276570e-1 NaN NaN 8.518200e-4 -4.104356e-3 NaN NaN
 -5.285326e-3 1.126198e-3 NaN NaN 4.764178e-2 9.922222e-2 NaN NaN
 1.233787e-3 5.156364e-3 NaN NaN -1.384771e-1 -9.648478e-1 NaN NaN
2.580000e9 -1.153496e-1 1.009756e-1 NaN NaN -5.684985e-3 1.213858e-3 NaN NaN
 2.581188e-1 -9.287113e-1 NaN NaN 7.847008e-4 -4.268642e-3 NaN NaN
 -5.432566e-3 1.245130e-3 NaN NaN 4.949309e-2 9.792046e-2 NaN NaN
 1.288567e-3 5.325380e-3 NaN NaN -1.465538e-1 -9.633044e-1 NaN NaN
2.590000e9 -1.148052e-1 1.026601e-1 NaN NaN -5.824638e-3 1.345209e-3 NaN NaN
 2.523776e-1 -9.295612e-1 NaN NaN 6.980420e-4 -4.420907e-3 NaN NaN
 -5.560865e-3 1.375042e-3 NaN NaN 5.095100e-2 9.643667e-2 NaN NaN
 1.365109e-3 5.483687e-3 NaN NaN -1.542145e-1 -9.614913e-1 NaN NaN
2.600000e9 -1.145179e-1 1.045059e-1 NaN NaN -5.949560e-3 1.469776e-3 NaN NaN
 2.468868e-1 -9.304548e-1 NaN NaN 6.097684e-4 -4.555252e-3 NaN NaN
 -5.673807e-3 1.496535e-3 NaN NaN 5.203751e-2 9.512154e-2 NaN NaN
 1.444575e-3 5.622188e-3 NaN NaN -1.614510e-1 -9.598036e-1 NaN NaN
2.610000e9 -1.142819e-1 1.066808e-1 NaN NaN -6.076459e-3 1.577445e-3 NaN NaN
 2.414797e-1 -9.315814e-1 NaN NaN 5.361544e-4 -4.682191e-3 NaN NaN
 -5.789202e-3 1.599829e-3 NaN NaN 5.303703e-2 9.418055e-2 NaN NaN
 1.507574e-3 5.749913e-3 NaN NaN -1.685636e-1 -9.584996e-1 NaN NaN
2.620000e9 -1.138371e-1 1.091335e-1 NaN NaN -6.224485e-3 1.674769e-3 NaN NaN
 2.359031e-1 -9.329342e-1 NaN NaN 4.795279e-4 -4.821640e-3 NaN NaN
 -5.926616e-3 1.692561e-3 NaN NaN 5.428890e-2 9.352408e-2 NaN NaN
 1.548483e-3 5.888088e-3 NaN NaN -1.759442e-1 -9.575117e-1 NaN NaN
2.630000e9 -1.130576e-1 1.116317e-1 NaN NaN -6.401342e-3 1.781096e-3 NaN NaN
 2.299991e-1 -9.343143e-1 NaN NaN 4.257554e-4 -4.988717e-3 NaN NaN
 -6.093136e-3 1.795096e-3 NaN NaN 5.593949e-2 9.283221e-2 NaN NaN
 1.580125e-3 6.055123e-3 NaN NaN -1.837908e-1 -9.564935e-1 NaN NaN
2.640000e9 -1.120437e-1 1.139311e-1 NaN NaN -6.597261e-3 1.915150e-3 NaN NaN
 2.238185e-1 -9.354732e-1 NaN NaN 3.537384e-4 -5.182523e-3 NaN NaN
 -6.277764e-3 1.926330e-3 NaN NaN 5.783437e-2 9.178740e-2 NaN NaN
 1.625077e-3 6.253227e-3 NaN NaN -1.919624e-1 -9.550699e-1 NaN NaN
2.650000e9 -1.110480e-1 1.159546e-1 NaN NaN -6.791577e-3 2.081564e-3 NaN NaN
 2.175839e-1 -9.362911e-1 NaN NaN 2.504037e-4 -5.386278e-3 NaN NaN
 -6.458889e-3 2.090044e-3 NaN NaN 5.962934e-2 9.030605e-2 NaN NaN
 1.699601e-3 6.466512e-3 NaN NaN -2.000791e-1 -9.531102e-1 NaN NaN
2.660000e9 -1.102914e-1 1.178496e-1 NaN NaN -6.967600e-3 2.267243e-3 NaN NaN
 2.115287e-1 -9.368628e-1 NaN NaN 1.203653e-4 -5.579176e-3 NaN NaN
 -6.619849e-3 2.271861e-3 NaN NaN 6.104015e-2 8.860016e-2 NaN NaN
 1.801732e-3 6.672300e-3 NaN NaN -2.077970e-1 -9.508242e-1 NaN NaN
2.670000e9 -1.098016e-1 1.198816e-1 NaN NaN -7.125163e-3 2.450644e-3 NaN NaN
 2.057282e-1 -9.374289e-1 NaN NaN -1.708541e-5 -5.751708e-3 NaN NaN
 -6.761457e-3 2.449453e-3 NaN NaN 6.204910e-2 8.702359e-2 NaN NaN
 1.912383e-3 6.857756e-3 NaN NaN -2.150591e-1 -9.486118e-1 NaN NaN
2.680000e9 -1.093912e-1 1.222425e-1 NaN NaN -7.281551e-3 2.617698e-3 NaN NaN
 2.000442e-1 -9.382017e-1 NaN NaN -1.419704e-4 -5.913285e-3 NaN NaN
 -6.902190e-3 2.609022e-3 NaN NaN 6.291785e-2 8.581459e-2 NaN NaN
 2.009032e-3 7.029828e-3 NaN NaN -2.221387e-1 -9.467723e-1 NaN NaN
2.690000e9 -1.087935e-1 1.249109e-1 NaN NaN -7.459610e-3 2.772926e-3 NaN NaN
 1.942232e-1 -9.392112e-1 NaN NaN -2.487449e-4 -6.086229e-3 NaN NaN
 -7.065394e-3 2.756200e-3 NaN NaN 6.399656e-2 8.492179e-2 NaN NaN
 2.082375e-3 7.211019e-3 NaN NaN -2.294424e-1 -9.452853e-1 NaN NaN
2.700000e9 -1.078555e-1 1.276687e-1 NaN NaN -7.671270e-3 2.937390e-3 NaN NaN
 1.880782e-1 -9.402821e-1 NaN NaN -3.514530e-4 -6.289984e-3 NaN NaN
 -7.262386e-3 2.913146e-3 NaN NaN 6.546787e-2 8.404095e-2 NaN NaN
 2.143838e-3 7.423643e-3 NaN NaN -2.372147e-1 -9.438222e-1 NaN NaN
2.710000e9 -1.066491e-1 1.302602e-1 NaN NaN -7.908368e-3 3.134417e-3 NaN NaN
 1.816222e-1 -9.411583e-1 NaN NaN -4.746875e-4 -6.526745e-3 NaN NaN
 -7.483695e-3 3.103400e-3 NaN NaN 6.721213e-2 8.283623e-2 NaN NaN
 2.218180e-3 7.673729e-3 NaN NaN -2.453583e-1 -9.419835e-1 NaN NaN
2.720000e9 -1.054182e-1 1.325798e-1 NaN NaN -8.147859e-3 3.373070e-3 NaN NaN
 1.750589e-1 -9.416858e-1 NaN NaN -6.363913e-4 -6.779177e-3 NaN NaN
 -7.705217e-3 3.335127e-3 NaN NaN 6.889268e-2 8.118546e-2 NaN NaN
 2.326092e-3 7.946341e-3 NaN NaN -2.535016e-1 -9.395884e-1 NaN NaN
2.730000e9 -1.044005e-1 1.347507e-1 NaN NaN -8.368207e-3 3.641416e-3 NaN NaN
 1.686355e-1 -9.419227e-1 NaN NaN -8.348213e-4 -7.022451e-3 NaN NaN
 -7.905389e-3 3.594986e-3 NaN NaN 7.019973e-2 7.927040e-2 NaN NaN
 2.469245e-3 8.216130e-3 NaN NaN -2.612675e-1 -9.368086e-1 NaN NaN
2.740000e9 -1.036526e-1 1.370370e-1 NaN NaN -8.565403e-3 3.915009e-3 NaN NaN
 1.624640e-1 -9.420965e-1 NaN NaN -1.049497e-3 -7.242376e-3 NaN NaN
 -8.081219e-3 3.857611e-3 NaN NaN 7.107576e-2 7.744563e-2 NaN NaN
 2.628814e-3 8.465882e-3 NaN NaN -2.685480e-1 -9.340453e-1 NaN NaN
2.750000e9 -1.030072e-1 1.396526e-1 NaN NaN -8.756790e-3 4.175020e-3 NaN NaN
 1.564391e-1 -9.424398e-1 NaN NaN -1.256090e-3 -7.446514e-3 NaN NaN
 -8.251341e-3 4.104381e-3 NaN NaN 7.175754e-2 7.598065e-2 NaN NaN
 2.779001e-3 8.699741e-3 NaN NaN -2.755856e-1 -9.316386e-1 NaN NaN
2.760000e9 -1.021928e-1 1.426067e-1 NaN NaN -8.969328e-3 4.423128e-3 NaN NaN
 1.503123e-1 -9.430212e-1 NaN NaN -1.444922e-3 -7.659740e-3 NaN NaN
 -8.443285e-3 4.338110e-3 NaN NaN 7.260344e-2 7.486313e-2 NaN NaN
 2.906175e-3 8.941252e-3 NaN NaN -2.827990e-1 -9.296177e-1 NaN NaN
2.770000e9 -1.010300e-1 1.456974e-1 NaN NaN -9.220213e-3 4.682062e-3 NaN NaN
 1.438684e-1 -9.436941e-1 NaN NaN -1.629594e-3 -7.906777e-3 NaN NaN
 -8.673620e-3 4.582679e-3 NaN NaN 7.383122e-2 7.380702e-2 NaN NaN
 3.019813e-3 9.217126e-3 NaN NaN -2.904798e-1 -9.276762e-1 NaN NaN
2.780000e9 -9.956146e-2 1.486599e-1 NaN NaN -9.503740e-3 4.980735e-3 NaN NaN
 1.370794e-1 -9.441987e-1 NaN NaN -1.838891e-3 -8.193962e-3 NaN NaN
 -8.935235e-3 4.867208e-3 NaN NaN 7.535713e-2 7.246068e-2 NaN NaN
 3.146930e-3 9.538125e-3 NaN NaN -2.985775e-1 -9.253913e-1 NaN NaN
2.790000e9 -9.801968e-2 1.513615e-1 NaN NaN -9.794376e-3 5.334171e-3 NaN NaN
 1.301239e-1 -9.443468e-1 NaN NaN -2.097115e-3 -8.503660e-3 NaN NaN
 -9.201440e-3 5.205712e-3 NaN NaN 7.685440e-2 7.066404e-2 NaN NaN
 3.313506e-3 9.890957e-3 NaN NaN -3.067329e-1 -9.225309e-1 NaN NaN
2.800000e9 -9.665614e-2 1.539003e-1 NaN NaN -1.006457e-2 5.732755e-3 NaN NaN
 1.232585e-1 -9.441542e-1 NaN NaN -2.406794e-3 -8.806111e-3 NaN NaN
 -9.444634e-3 5.586988e-3 NaN NaN 7.798969e-2 6.856727e-2 NaN NaN
 3.526052e-3 1.024754e-2 NaN NaN -3.145366e-1 -9.192240e-1 NaN NaN
2.810000e9 -9.555547e-2 1.565365e-1 NaN NaN -1.030489e-2 6.149204e-3 NaN NaN
 1.166332e-1 -9.438286e-1 NaN NaN -2.746672e-3 -9.080843e-3 NaN NaN
 -9.656495e-3 5.982668e-3 NaN NaN 7.866558e-2 6.652333e-2 NaN NaN
 3.766837e-3 1.058545e-2 NaN NaN -3.218270e-1 -9.158700e-1 NaN NaN
2.820000e9 -9.457068e-2 1.595048e-1 NaN NaN -1.053179e-2 6.558988e-3 NaN NaN
 1.101816e-1 -9.436187e-1 NaN NaN -3.087299e-3 -9.332318e-3 NaN NaN
 -9.854888e-3 6.368366e-3 NaN NaN 7.909188e-2 6.483168e-2 NaN NaN
 4.006786e-3 1.090501e-2 NaN NaN -3.288112e-1 -9.128489e-1 NaN NaN
2.830000e9 -9.342711e-2 1.628444e-1 NaN NaN -1.077660e-2 6.959872e-3 NaN NaN
 1.036661e-1 -9.436336e-1 NaN NaN -3.413627e-3 -9.587916e-3 NaN NaN
 -1.007180e-2 6.742995e-3 NaN NaN 7.963269e-2 6.351978e-2 NaN NaN
 4.227268e-3 1.123036e-2 NaN NaN -3.359173e-1 -9.102430e-1 NaN NaN
2.840000e9 -9.191998e-2 1.663715e-1 NaN NaN -1.106299e-2 7.376131e-3 NaN NaN
 9.684603e-2 -9.437610e-1 NaN NaN -3.738291e-3 -9.878785e-3 NaN NaN
 -1.033021e-2 7.131992e-3 NaN NaN 8.053965e-2 6.232231e-2 NaN NaN
 4.435154e-3 1.159309e-2 NaN NaN -3.434842e-1 -9.077719e-1 NaN NaN
2.850000e9 -9.006151e-2 1.698149e-1 NaN NaN -1.138875e-2 7.843570e-3 NaN NaN
 8.964777e-2 -9.437433e-1 NaN NaN -4.095243e-3 -1.021675e-2 NaN NaN
 -1.062640e-2 7.571270e-3 NaN NaN 8.176579e-2 6.087446e-2 NaN NaN
 4.659868e-3 1.200978e-2 NaN NaN -3.515127e-1 -9.049920e-1 NaN NaN
2.860000e9 -8.806975e-2 1.730159e-1 NaN NaN -1.172563e-2 8.385369e-3 NaN NaN
 8.221724e-2 -9.433570e-1 NaN NaN -4.517348e-3 -1.058414e-2 NaN NaN
 -1.093091e-2 8.082768e-3 NaN NaN 8.299659e-2 5.897938e-2 NaN NaN
 4.933894e-3 1.246966e-2 NaN NaN -3.596597e-1 -9.016171e-1 NaN NaN
2.870000e9 -8.620632e-2 1.760475e-1 NaN NaN -1.203825e-2 8.996062e-3 NaN NaN
 7.481527e-2 -9.425691e-1 NaN NaN -5.013593e-3 -1.094479e-2 NaN NaN
 -1.120838e-2 8.659133e-3 NaN NaN 8.387708e-2 5.675474e-2 NaN NaN
 5.270360e-3 1.294181e-2 NaN NaN -3.674842e-1 -8.977287e-1 NaN NaN
2.880000e9 -8.458106e-2 1.791638e-1 NaN NaN -1.230919e-2 9.645897e-3 NaN NaN
 6.763075e-2 -9.415571e-1 NaN NaN -5.562776e-3 -1.126931e-2 NaN NaN
 -1.144272e-2 9.269305e-3 NaN NaN 8.427014e-2 5.454999e-2 NaN NaN
 5.654048e-3 1.339740e-2 NaN NaN -3.747679e-1 -8.937199e-1 NaN NaN
2.890000e9 -8.306657e-2 1.826175e-1 NaN NaN -1.255205e-2 1.030351e-2 NaN NaN
 6.064411e-2 -9.405796e-1 NaN NaN -6.129370e-3 -1.155672e-2 NaN NaN
 -1.164918e-2 9.881972e-3 NaN NaN 8.435698e-2 5.269346e-2 NaN NaN
 6.052962e-3 1.383133e-2 NaN NaN -3.816767e-1 -8.900110e-1 NaN NaN
2.900000e9 -8.138568e-2 1.864763e-1 NaN NaN -1.280226e-2 1.096120e-2 NaN NaN
 5.363860e-2 -9.397875e-1 NaN NaN -6.691151e-3 -1.183625e-2 NaN NaN
 -1.186395e-2 1.049059e-2 NaN NaN 8.450512e-2 5.125335e-2 NaN NaN
 6.442847e-3 1.426731e-2 NaN NaN -3.886444e-1 -8.867408e-1 NaN NaN
2.910000e9 -7.930872e-2 1.905752e-1 NaN NaN -1.309097e-2 1.164439e-2 NaN NaN
 4.635173e-2 -9.391108e-1 NaN NaN -7.258872e-3 -1.214656e-2 NaN NaN
 -1.211749e-2 1.112170e-2 NaN NaN 8.499889e-2 4.998770e-2 NaN NaN
 6.827260e-3 1.474196e-2 NaN NaN -3.960585e-1 -8.836598e-1 NaN NaN
2.920000e9 -7.681651e-2 1.946385e-1 NaN NaN -1.342045e-2 1.239739e-2 NaN NaN
 3.866017e-2 -9.383007e-1 NaN NaN -7.872910e-3 -1.250650e-2 NaN NaN
 -1.241050e-2 1.181944e-2 NaN NaN 8.582894e-2 4.852154e-2 NaN NaN
 7.238320e-3 1.527878e-2 NaN NaN -4.039746e-1 -8.803051e-1 NaN NaN
2.930000e9 -7.410909e-2 1.984835e-1 NaN NaN -1.375897e-2 1.325456e-2 NaN NaN
 3.066713e-2 -9.370982e-1 NaN NaN -8.577884e-3 -1.289828e-2 NaN NaN
 -1.271008e-2 1.261650e-2 NaN NaN 8.669529e-2 4.662312e-2 NaN NaN
 7.716775e-3 1.587036e-2 NaN NaN -4.120702e-1 -8.763338e-1 NaN NaN
2.940000e9 -7.145295e-2 2.021576e-1 NaN NaN -1.406009e-2 1.421729e-2 NaN NaN
 2.263015e-2 -9.354108e-1 NaN NaN -9.392575e-3 -1.327649e-2 NaN NaN
 -1.297016e-2 1.351186e-2 NaN NaN 8.722371e-2 4.437763e-2 NaN NaN
 8.285076e-3 1.648242e-2 NaN NaN -4.198728e-1 -8.717742e-1 NaN NaN
2.950000e9 -6.897779e-2 2.059061e-1 NaN NaN -1.429363e-2 1.525396e-2 NaN NaN
 1.477957e-2 -9.333714e-1 NaN NaN -1.029714e-2 -1.359789e-2 NaN NaN
 -1.316244e-2 1.447227e-2 NaN NaN 8.723841e-2 4.213008e-2 NaN NaN
 8.932897e-3 1.707755e-2 NaN NaN -4.271021e-1 -8.670085e-1 NaN NaN
2.960000e9 -6.657207e-2 2.099946e-1 NaN NaN -1.446607e-2 1.632453e-2 NaN NaN
 7.155471e-3 -9.312378e-1 NaN NaN -1.124835e-2 -1.385125e-2 NaN NaN
 -1.329567e-2 1.545764e-2 NaN NaN 8.689147e-2 4.023722e-2 NaN NaN
 9.626282e-3 1.764210e-2 NaN NaN -4.338762e-1 -8.624971e-1 NaN NaN
2.970000e9 -6.395492e-2 2.145145e-1 NaN NaN -1.461477e-2 1.741283e-2 NaN NaN
 -4.220267e-4 -9.292034e-1 NaN NaN -1.221339e-2 -1.406507e-2 NaN NaN
 -1.340834e-2 1.645303e-2 NaN NaN 8.655267e-2 3.880907e-2 NaN NaN
 1.033480e-2 1.819673e-2 NaN NaN -4.406297e-1 -8.584404e-1 NaN NaN
2.980000e9 -6.087226e-2 2.193159e-1 NaN NaN -1.477835e-2 1.854360e-2 NaN NaN
 -8.227591e-3 -9.272510e-1 NaN NaN -1.319865e-2 -1.428580e-2 NaN NaN
 -1.353862e-2 1.748422e-2 NaN NaN 8.653873e-2 3.762993e-2 NaN NaN
 1.105770e-2 1.878193e-2 NaN NaN -4.477980e-1 -8.546258e-1 NaN NaN
2.990000e9 -5.727335e-2 2.241176e-1 NaN NaN -1.496368e-2 1.977046e-2 NaN NaN
 -1.643768e-2 -9.251519e-1 NaN NaN -1.425152e-2 -1.454036e-2 NaN NaN
 -1.369195e-2 1.860429e-2 NaN NaN 8.687940e-2 3.631814e-2 NaN NaN
 1.182987e-2 1.942810e-2 NaN NaN -4.554964e-1 -8.505738e-1 NaN NaN
3.000000e9 -5.333737e-2 2.287131e-1 NaN NaN -1.513317e-2 2.114188e-2 NaN NaN
 -2.500390e-2 -9.226127e-1 NaN NaN -1.543198e-2 -1.480954e-2 NaN NaN
 -1.383010e-2 1.985937e-2 NaN NaN 8.729252e-2 3.460989e-2 NaN NaN
 1.270234e-2 2.013097e-2 NaN NaN -4.634261e-1 -8.458820e-1 NaN NaN
3.010000e9 -4.932909e-2 2.331231e-1 NaN NaN -1.522305e-2 2.266855e-2 NaN NaN
 -3.368120e-2 -9.194673e-1 NaN NaN -1.677243e-2 -1.503282e-2 NaN NaN
 -1.389071e-2 2.125706e-2 NaN NaN 8.738871e-2 3.255937e-2 NaN NaN
 1.371028e-2 2.085074e-2 NaN NaN -4.710819e-1 -8.405194e-1 NaN NaN
3.020000e9 -4.538931e-2 2.375783e-1 NaN NaN -1.518118e-2 2.431603e-2 NaN NaN
 -4.219178e-2 -9.157805e-1 NaN NaN -1.825466e-2 -1.514327e-2 NaN NaN
 -1.382500e-2 2.276102e-2 NaN NaN 8.695745e-2 3.050735e-2 NaN NaN
 1.485129e-2 2.153644e-2 NaN NaN -4.781142e-1 -8.348537e-1 NaN NaN
3.030000e9 -4.141514e-2 2.423455e-1 NaN NaN -1.499783e-2 2.602979e-2 NaN NaN
 -5.041193e-2 -9.117934e-1 NaN NaN -1.982230e-2 -1.510915e-2 NaN NaN
 -1.362710e-2 2.431694e-2 NaN NaN 8.612488e-2 2.883875e-2 NaN NaN
 1.609019e-2 2.215894e-2 NaN NaN -4.845831e-1 -8.293876e-1 NaN NaN
3.040000e9 -3.711986e-2 2.475246e-1 NaN NaN -1.470636e-2 2.777606e-2 NaN NaN
 -5.845253e-2 -9.077440e-1 NaN NaN -2.142222e-2 -1.495171e-2 NaN NaN
 -1.333283e-2 2.589305e-2 NaN NaN 8.526592e-2 2.770571e-2 NaN NaN
 1.738820e-2 2.272883e-2 NaN NaN -4.909164e-1 -8.243918e-1 NaN NaN
3.050000e9 -3.222945e-2 2.529659e-1 NaN NaN -1.435102e-2 2.956977e-2 NaN NaN
 -6.657754e-2 -9.036894e-1 NaN NaN -2.304658e-2 -1.472384e-2 NaN NaN
 -1.298682e-2 2.750604e-2 NaN NaN 8.473304e-2 2.691973e-2 NaN NaN
 1.873616e-2 2.328518e-2 NaN NaN -4.975972e-1 -8.197011e-1 NaN NaN
3.060000e9 -2.667033e-2 2.583723e-1 NaN NaN -1.394321e-2 3.146759e-2 NaN NaN
 -7.501487e-2 -8.994480e-1 NaN NaN -2.474392e-2 -1.446196e-2 NaN NaN
 -1.259984e-2 2.921246e-2 NaN NaN 8.459992e-2 2.609400e-2 NaN NaN
 2.016781e-2 2.386198e-2 NaN NaN -5.048042e-1 -8.148265e-1 NaN NaN
3.070000e9 -2.060826e-2 2.635095e-1 NaN NaN -1.343719e-2 3.352866e-2 NaN NaN
 -8.378718e-2 -8.947044e-1 NaN NaN -2.658818e-2 -1.414435e-2 NaN NaN
 -1.212671e-2 3.106909e-2 NaN NaN 8.460913e-2 2.493360e-2 NaN NaN
 2.174226e-2 2.445515e-2 NaN NaN -5.122669e-1 -8.093074e-1 NaN NaN
3.080000e9 -1.430779e-2 2.683686e-1 NaN NaN -1.274450e-2 3.576861e-2 NaN NaN
 -9.267657e-2 -8.892053e-1 NaN NaN -2.862411e-2 -1.368734e-2 NaN NaN
 -1.148252e-2 3.308866e-2 NaN NaN 8.436511e-2 2.346097e-2 NaN NaN
 2.350647e-2 2.501427e-2 NaN NaN -5.194461e-1 -8.030517e-1 NaN NaN
3.090000e9 -7.916376e-3 2.731575e-1 NaN NaN -1.177972e-2 3.813955e-2 NaN NaN
 -1.013480e-1 -8.829193e-1 NaN NaN -3.082683e-2 -1.298623e-2 NaN NaN
 -1.058812e-2 3.522252e-2 NaN NaN 8.363301e-2 2.200909e-2 NaN NaN
 2.546378e-2 2.546601e-2 NaN NaN -5.259147e-1 -7.964137e-1 NaN NaN
3.100000e9 -1.336211e-3 2.781245e-1 NaN NaN -1.050692e-2 4.055216e-2 NaN NaN
 -1.095512e-1 -8.760514e-1 NaN NaN -3.310666e-2 -1.197513e-2 NaN NaN
 -9.414384e-3 3.738433e-2 NaN NaN 8.252378e-2 2.098397e-2 NaN NaN
 2.757109e-2 2.575410e-2 NaN NaN -5.316648e-1 -7.899494e-1 NaN NaN
3.110000e9 5.716508e-3 2.833473e-1 NaN NaN -8.953677e-3 4.292660e-2 NaN NaN
 -1.172684e-1 -8.689029e-1 NaN NaN -3.535964e-2 -1.066382e-2 NaN NaN
 -7.993303e-3 3.950034e-2 NaN NaN 8.142704e-2 2.056909e-2 NaN NaN
 2.976779e-2 2.586779e-2 NaN NaN -5.371136e-1 -7.840191e-1 NaN NaN
3.120000e9 1.350621e-2 2.886464e-1 NaN NaN -7.180606e-3 4.523741e-2 NaN NaN
 -1.247106e-1 -8.616669e-1 NaN NaN -3.753107e-2 -9.122538e-3 NaN NaN
 -6.386076e-3 4.155161e-2 NaN NaN 8.073823e-2 2.058951e-2 NaN NaN
 3.201684e-2 2.583797e-2 NaN NaN -5.427991e-1 -7.785277e-1 NaN NaN
3.130000e9 2.208102e-2 2.936956e-1 NaN NaN -5.225523e-3 4.751950e-2 NaN NaN
 -1.321642e-1 -8.542896e-1 NaN NaN -3.964622e-2 -7.420775e-3 NaN NaN
 -4.628571e-3 4.357690e-2 NaN NaN 8.057938e-2 2.063779e-2 NaN NaN
 3.432852e-2 2.570268e-2 NaN NaN -5.489813e-1 -7.729941e-1 NaN NaN
3.140000e9 3.123659e-2 2.982478e-1 NaN NaN -3.061072e-3 4.982768e-2 NaN NaN
 -1.397806e-1 -8.464891e-1 NaN NaN -4.178183e-2 -5.560733e-3 NaN NaN
 -2.692290e-3 4.563134e-2 NaN NaN 8.071993e-2 2.037149e-2 NaN NaN
 3.674894e-2 2.546566e-2 NaN NaN -5.554389e-1 -7.669066e-1 NaN NaN
3.150000e9 4.067418e-2 3.023050e-1 NaN NaN -5.979926e-4 5.217499e-2 NaN NaN
 -1.474430e-1 -8.379224e-1 NaN NaN -4.399218e-2 -3.454597e-3 NaN NaN
 -4.906043e-4 4.772709e-2 NaN NaN 8.075889e-2 1.976363e-2 NaN NaN
 3.931970e-2 2.507767e-2 NaN NaN -5.616161e-1 -7.601116e-1 NaN NaN
3.160000e9 5.023639e-2 3.060980e-1 NaN NaN 2.263487e-3 5.449234e-2 NaN NaN
 -1.547948e-1 -8.284052e-1 NaN NaN -4.623886e-2 -9.687800e-4 NaN NaN
 2.069709e-3 4.979696e-2 NaN NaN 8.043641e-2 1.911867e-2 NaN NaN
 4.203585e-2 2.445558e-2 NaN NaN -5.670198e-1 -7.529510e-1 NaN NaN
3.170000e9 6.003627e-2 3.098817e-1 NaN NaN 5.565357e-3 5.664030e-2 NaN NaN
 -1.614228e-1 -8.180492e-1 NaN NaN -4.837663e-2 1.987574e-3 NaN NaN
 5.023601e-3 5.170947e-2 NaN NaN 7.984396e-2 1.883796e-2 NaN NaN
 4.483183e-2 2.352809e-2 NaN NaN -5.715847e-1 -7.460408e-1 NaN NaN
3.180000e9 7.036872e-2 3.137040e-1 NaN NaN 9.252126e-3 5.847060e-2 NaN NaN
 -1.670943e-1 -8.072286e-1 NaN NaN -5.021458e-2 5.387638e-3 NaN NaN
 8.313443e-3 5.332979e-2 NaN NaN 7.937323e-2 1.910539e-2 NaN NaN
 4.760661e-2 2.227788e-2 NaN NaN -5.757377e-1 -7.398446e-1 NaN NaN
3.190000e9 8.146256e-2 3.173374e-1 NaN NaN 1.318916e-2 5.990073e-2 NaN NaN
 -1.719125e-1 -7.963792e-1 NaN NaN -5.162044e-2 9.081527e-3 NaN NaN
 1.181113e-2 5.458920e-2 NaN NaN 7.943650e-2 1.972729e-2 NaN NaN
 5.027219e-2 2.075190e-2 NaN NaN -5.801084e-1 -7.343460e-1 NaN NaN
3.200000e9 9.326907e-2 3.204500e-1 NaN NaN 1.723201e-2 6.095412e-2 NaN NaN
 -1.762892e-1 -7.857281e-1 NaN NaN -5.260092e-2 1.287532e-2 NaN NaN
 1.538594e-2 5.551808e-2 NaN NaN 8.016197e-2 2.025002e-2 NaN NaN
 5.279413e-2 1.903337e-2 NaN NaN -5.850878e-1 -7.290619e-1 NaN NaN
3.210000e9 1.054778e-1 3.228992e-1 NaN NaN 2.130640e-2 6.173810e-2 NaN NaN
 -1.807259e-1 -7.750955e-1 NaN NaN -5.329842e-2 1.665304e-2 NaN NaN
 1.897721e-2 5.621937e-2 NaN NaN 8.129124e-2 2.027458e-2 NaN NaN
 5.519901e-2 1.719463e-2 NaN NaN -5.905525e-1 -7.233928e-1 NaN NaN
3.220000e9 1.177913e-1 3.249127e-1 NaN NaN 2.545078e-2 6.236964e-2 NaN NaN
 -1.854870e-1 -7.638884e-1 NaN NaN -5.389229e-2 2.046513e-2 NaN NaN
 2.262750e-2 5.679690e-2 NaN NaN 8.236101e-2 1.973863e-2 NaN NaN
 5.754753e-2 1.526122e-2 NaN NaN -5.959578e-1 -7.170631e-1 NaN NaN
3.230000e9 1.302822e-1 3.269646e-1 NaN NaN 2.979495e-2 6.289071e-2 NaN NaN
 -1.903149e-1 -7.513327e-1 NaN NaN -5.445477e-2 2.451837e-2 NaN NaN
 2.645547e-2 5.728013e-2 NaN NaN 8.304136e-2 1.895392e-2 NaN NaN
 5.989428e-2 1.320660e-2 NaN NaN -6.007406e-1 -7.103346e-1 NaN NaN
3.240000e9 1.435423e-1 3.293613e-1 NaN NaN 3.448643e-2 6.322004e-2 NaN NaN
 -1.943478e-1 -7.368803e-1 NaN NaN -5.484774e-2 2.905737e-2 NaN NaN
 3.058446e-2 5.758845e-2 NaN NaN 8.338188e-2 1.836361e-2 NaN NaN
 6.226082e-2 1.097356e-2 NaN NaN -6.047449e-1 -7.038305e-1 NaN NaN
3.250000e9 1.584294e-1 3.317931e-1 NaN NaN 3.960419e-2 6.316502e-2 NaN NaN
 -1.963375e-1 -7.206282e-1 NaN NaN -5.473100e-2 3.419430e-2 NaN NaN
 3.506780e-2 5.755285e-2 NaN NaN 8.377807e-2 1.819210e-2 NaN NaN
 6.463402e-2 8.499804e-3 NaN NaN -6.083602e-1 -6.980925e-1 NaN NaN
3.260000e9 1.754835e-1 3.331995e-1 NaN NaN 4.510131e-2 6.248265e-2 NaN NaN
 -1.951339e-1 -7.035385e-1 NaN NaN -5.369266e-2 3.978067e-2 NaN NaN
 3.984954e-2 5.697689e-2 NaN NaN 8.467341e-2 1.824579e-2 NaN NaN
 6.697697e-2 5.726688e-3 NaN NaN -6.122680e-1 -6.931870e-1 NaN NaN
3.270000e9 1.943478e-1 3.321427e-1 NaN NaN 5.079479e-2 6.095652e-2 NaN NaN
 -1.902673e-1 -6.873071e-1 NaN NaN -5.144241e-2 4.539695e-2 NaN NaN
 4.477085e-2 5.569987e-2 NaN NaN 8.620965e-2 1.801837e-2 NaN NaN
 6.922828e-2 2.592368e-3 NaN NaN -6.169727e-1 -6.886486e-1 NaN NaN
3.280000e9 2.135894e-1 3.275693e-1 NaN NaN 5.639323e-2 5.846034e-2 NaN NaN
 -1.823875e-1 -6.738631e-1 NaN NaN -4.797157e-2 5.047450e-2 NaN NaN
 4.960203e-2 5.363559e-2 NaN NaN 8.808159e-2 1.703295e-2 NaN NaN
 7.127785e-2 -9.660891e-4 NaN NaN -6.224563e-1 -6.838077e-1 NaN NaN
3.290000e9 2.311288e-1 3.195803e-1 NaN NaN 6.154143e-2 5.499972e-2 NaN NaN
 -1.733457e-1 -6.646291e-1 NaN NaN -4.360067e-2 5.449431e-2 NaN NaN
 5.407283e-2 5.078958e-2 NaN NaN 8.970902e-2 1.517744e-2 NaN NaN
 7.293746e-2 -4.973403e-3 NaN NaN -6.282135e-1 -6.782703e-1 NaN NaN
3.300000e9 2.451683e-1 3.097685e-1 NaN NaN 6.587208e-2 5.074087e-2 NaN NaN
 -1.658000e-1 -6.597783e-1 NaN NaN -3.889469e-2 5.717080e-2 NaN NaN
 5.789510e-2 4.727728e-2 NaN NaN 9.060719e-2 1.278819e-2 NaN NaN
 7.394952e-2 -9.337025e-3 NaN NaN -6.336503e-1 -6.721972e-1 NaN NaN
3.310000e9 2.552325e-1 3.008367e-1 NaN NaN 6.907359e-2 4.603178e-2 NaN NaN
 -1.623637e-1 -6.577921e-1 NaN NaN -3.449222e-2 5.854317e-2 NaN NaN
 6.080033e-2 4.335565e-2 NaN NaN 9.068768e-2 1.041761e-2 NaN NaN
 7.407276e-2 -1.376891e-2 NaN NaN -6.385622e-1 -6.661688e-1 NaN NaN
3.320000e9 2.627843e-1 2.955247e-1 NaN NaN 7.098784e-2 4.139893e-2 NaN NaN
 -1.645185e-1 -6.556138e-1 NaN NaN -3.092865e-2 5.895227e-2 NaN NaN
 6.262058e-2 3.944629e-2 NaN NaN 9.026816e-2 8.455870e-3 NaN NaN
 7.324086e-2 -1.778157e-2 NaN NaN -6.433364e-1 -6.607151e-1 NaN NaN
3.330000e9 2.709798e-1 2.952685e-1 NaN NaN 7.172911e-2 3.748274e-2 NaN NaN
 -1.717351e-1 -6.495227e-1 NaN NaN -2.851780e-2 5.893813e-2 NaN NaN
 6.340865e-2 3.609813e-2 NaN NaN 8.978385e-2 6.889214e-3 NaN NaN
 7.172081e-2 -2.081879e-2 NaN NaN -6.487088e-1 -6.558461e-1 NaN NaN
3.340000e9 2.835268e-1 2.992771e-1 NaN NaN 7.177566e-2 3.488243e-2 NaN NaN
 -1.813058e-1 -6.364898e-1 NaN NaN -2.730863e-2 5.911718e-2 NaN NaN
 6.353891e-2 3.385096e-2 NaN NaN 8.941993e-2 5.380075e-3 NaN NaN
 7.015440e-2 -2.250502e-2 NaN NaN -6.552282e-1 -6.509307e-1 NaN NaN
3.350000e9 3.031629e-1 3.045838e-1 NaN NaN 7.195855e-2 3.392686e-2 NaN NaN
 -1.891080e-1 -6.154048e-1 NaN NaN -2.709137e-2 6.007830e-2 NaN NaN
 6.370346e-2 3.302411e-2 NaN NaN 8.895100e-2 3.612882e-3 NaN NaN
 6.940376e-2 -2.289786e-2 NaN NaN -6.627959e-1 -6.450388e-1 NaN NaN
3.360000e9 3.305367e-1 3.070699e-1 NaN NaN 7.329044e-2 3.445184e-2 NaN NaN
 -1.909889e-1 -5.875530e-1 NaN NaN -2.742107e-2 6.229798e-2 NaN NaN
 6.475804e-2 3.352367e-2 NaN NaN 8.792674e-2 1.641074e-3 NaN NaN
 7.023783e-2 -2.259180e-2 NaN NaN -6.706180e-1 -6.375358e-1 NaN NaN
3.370000e9 3.640103e-1 3.028943e-1 NaN NaN 7.664773e-2 3.570457e-2 NaN NaN
 -1.841011e-1 -5.561372e-1 NaN NaN -2.765416e-2 6.605271e-2 NaN NaN
 6.745692e-2 3.477408e-2 NaN NaN 8.608059e-2 -4.714348e-5 NaN NaN
 7.300196e-2 -2.259229e-2 NaN NaN -6.776310e-1 -6.285290e-1 NaN NaN
3.380000e9 4.003227e-1 2.896318e-1 NaN NaN 8.241345e-2 3.647081e-2 NaN NaN
 -1.676161e-1 -5.251666e-1 NaN NaN -2.702460e-2 7.132225e-2 NaN NaN
 7.217962e-2 3.582471e-2 NaN NaN 8.365359e-2 -8.290807e-4 NaN NaN
 7.742650e-2 -2.400277e-2 NaN NaN -6.831325e-1 -6.188504e-1 NaN NaN
3.390000e9 4.356572e-1 2.667403e-1 NaN NaN 9.024464e-2 3.542444e-2 NaN NaN
 -1.426484e-1 -4.982645e-1 NaN NaN -2.478781e-2 7.771721e-2 NaN NaN
 7.875854e-2 3.560504e-2 NaN NaN 8.136288e-2 -4.203231e-4 NaN NaN
 8.265785e-2 -2.765174e-2 NaN NaN -6.871974e-1 -6.095754e-1 NaN NaN
3.400000e9 4.666335e-1 2.353798e-1 NaN NaN 9.909894e-2 3.157821e-2 NaN NaN
 -1.115899e-1 -4.778409e-1 NaN NaN -2.042088e-2 8.449151e-2 NaN NaN
 8.647834e-2 3.324598e-2 NaN NaN 7.999253e-2 8.253000e-4 NaN NaN
 8.750195e-2 -3.380126e-2 NaN NaN -6.906032e-1 -6.013922e-1 NaN NaN
3.410000e9 4.909469e-1 1.978299e-1 NaN NaN 1.075422e-1 2.464293e-2 NaN NaN
 -7.721297e-2 -4.648274e-1 NaN NaN -1.381304e-2 9.068418e-2 NaN NaN
 9.426280e-2 2.835770e-2 NaN NaN 7.986786e-2 2.034842e-3 NaN NaN
 9.079707e-2 -4.204445e-2 NaN NaN -6.943233e-1 -5.942416e-1 NaN NaN
3.420000e9 5.075882e-1 1.567788e-1 NaN NaN 1.142208e-1 1.512813e-2 NaN NaN
 -4.189587e-2 -4.589367e-1 NaN NaN -5.350852e-3 9.537434e-2 NaN NaN
 1.009983e-1 2.115559e-2 NaN NaN 8.058152e-2 2.312387e-3 NaN NaN
 9.178399e-2 -5.143922e-2 NaN NaN -6.989395e-1 -5.874493e-1 NaN NaN
3.430000e9 5.167029e-1 1.146952e-1 NaN NaN 1.182968e-1 4.133222e-3 NaN NaN
 -7.217836e-3 -4.592401e-1 NaN NaN 4.170423e-3 9.796057e-2 NaN NaN
 1.058778e-1 1.236960e-2 NaN NaN 8.118558e-2 1.295641e-3 NaN NaN
 9.032826e-2 -6.083866e-2 NaN NaN -7.043665e-1 -5.802326e-1 NaN NaN
3.440000e9 5.192143e-1 7.341441e-2 NaN NaN 1.196554e-1 -7.074844e-3 NaN NaN
 2.600418e-2 -4.647587e-1 NaN NaN 1.379943e-2 9.833905e-2 NaN NaN
 1.086184e-1 2.962517e-3 NaN NaN 8.074771e-2 -6.069835e-4 NaN NaN
 8.689556e-2 -6.928657e-2 NaN NaN -7.100504e-1 -5.722143e-1 NaN NaN
3.450000e9 5.163581e-1 3.398940e-2 NaN NaN 1.188067e-1 -1.749906e-2 NaN NaN
 5.737325e-2 -4.748034e-1 NaN NaN 2.274407e-2 9.688594e-2 NaN NaN
 1.094538e-1 -6.215576e-3 NaN NaN 7.890781e-2 -2.476142e-3 NaN NaN
 8.229255e-2 -7.630222e-2 NaN NaN -7.154691e-1 -5.635844e-1 NaN NaN
3.460000e9 5.092646e-1 -3.213491e-3 NaN NaN 1.165562e-1 -2.666599e-2 NaN NaN
 8.653519e-2 -4.889678e-1 NaN NaN 3.060099e-2 9.424464e-2 NaN NaN
 1.089195e-1 -1.466894e-2 NaN NaN 7.605279e-2 -3.475299e-3 NaN NaN
 7.730688e-2 -8.192963e-2 NaN NaN -7.205528e-1 -5.548189e-1 NaN NaN
3.470000e9 4.986860e-1 -3.824830e-2 NaN NaN 1.136300e-1 -3.460305e-2 NaN NaN
 1.130028e-1 -5.068985e-1 NaN NaN 3.738749e-2 9.102638e-2 NaN NaN
 1.075633e-1 -2.228846e-2 NaN NaN 7.298040e-2 -3.372963e-3 NaN NaN
 7.242916e-2 -8.655569e-2 NaN NaN -7.257150e-1 -5.461840e-1 NaN NaN
3.480000e9 4.849211e-1 -7.125177e-2 NaN NaN 1.104487e-1 -4.160177e-2 NaN NaN
 1.362349e-1 -5.280821e-1 NaN NaN 4.337256e-2 8.758411e-2 NaN NaN
 1.057473e-1 -2.919888e-2 NaN NaN 7.028039e-2 -2.623908e-3 NaN NaN
 6.777814e-2 -9.062525e-2 NaN NaN -7.314781e-1 -5.374126e-1 NaN NaN
3.490000e9 4.679391e-1 -1.021425e-1 NaN NaN 1.071334e-1 -4.793924e-2 NaN NaN
 1.558312e-1 -5.518190e-1 NaN NaN 4.882007e-2 8.397548e-2 NaN NaN
 1.036273e-1 -3.555205e-2 NaN NaN 6.786994e-2 -1.941216e-3 NaN NaN
 6.322256e-2 -9.441884e-2 NaN NaN -7.379809e-1 -5.278042e-1 NaN NaN
3.500000e9 4.476549e-1 -1.304609e-1 NaN NaN 1.036844e-1 -5.372910e-2 NaN NaN
 1.716429e-1 -5.773727e-1 NaN NaN 5.380591e-2 8.011367e-2 NaN NaN
 1.012740e-1 -4.140992e-2 NaN NaN 6.502546e-2 -1.650923e-3 NaN NaN
 5.858543e-2 -9.799353e-2 NaN NaN -7.447461e-1 -5.166836e-1 NaN NaN
3.510000e9 4.242485e-1 -1.554229e-1 NaN NaN 1.001721e-1 -5.896777e-2 NaN NaN
 1.837017e-1 -6.041388e-1 NaN NaN 5.821821e-2 7.598731e-2 NaN NaN
 9.880827e-2 -4.677835e-2 NaN NaN 6.091372e-2 -1.286862e-3 NaN NaN
 5.379361e-2 -1.012742e-1 NaN NaN -7.508932e-1 -5.038834e-1 NaN NaN
3.520000e9 3.983809e-1 -1.761807e-1 NaN NaN 9.679215e-2 -6.370263e-2 NaN NaN
 1.920407e-1 -6.316697e-1 NaN NaN 6.192683e-2 7.178911e-2 NaN NaN
 9.643174e-2 -5.173558e-2 NaN NaN 5.527206e-2 2.661037e-4 NaN NaN
 4.889780e-2 -1.041957e-1 NaN NaN -7.556570e-1 -4.898920e-1 NaN NaN
3.530000e9 3.711793e-1 -1.921838e-1 NaN NaN 9.374903e-2 -6.816752e-2 NaN NaN
 1.965818e-1 -6.595293e-1 NaN NaN 6.499211e-2 6.785565e-2 NaN NaN
 9.431796e-2 -5.652861e-2 NaN NaN 4.876632e-2 4.142812e-3 NaN NaN
 4.398569e-2 -1.067860e-1 NaN NaN -7.588397e-1 -4.755498e-1 NaN NaN
3.540000e9 3.439701e-1 -2.034498e-1 NaN NaN 9.106011e-2 -7.275939e-2 NaN NaN
 1.972116e-1 -6.871056e-1 NaN NaN 6.775135e-2 6.445231e-2 NaN NaN
 9.244681e-2 -6.153259e-2 NaN NaN 4.275768e-2 1.078525e-2 NaN NaN
 3.907901e-2 -1.091413e-1 NaN NaN -7.608709e-1 -4.615078e-1 NaN NaN
3.550000e9 3.178819e-1 -2.105847e-1 NaN NaN 8.844008e-2 -7.784811e-2 NaN NaN
 1.940116e-1 -7.135680e-1 NaN NaN 7.069989e-2 6.155067e-2 NaN NaN
 9.051759e-2 -6.707006e-2 NaN NaN 3.860480e-2 1.962029e-2 NaN NaN
 3.410266e-2 -1.113300e-1 NaN NaN -7.624358e-1 -4.478375e-1 NaN NaN
3.560000e9 2.935408e-1 -2.145209e-1 NaN NaN 8.537530e-2 -8.353862e-2 NaN NaN
 1.874594e-1 -7.380498e-1 NaN NaN 7.422422e-2 5.876316e-2 NaN NaN
 8.803458e-2 -7.319863e-2 NaN NaN 3.694153e-2 2.934855e-2 NaN NaN
 2.894924e-2 -1.133145e-1 NaN NaN -7.639499e-1 -4.340685e-1 NaN NaN
3.570000e9 2.710352e-1 -2.161249e-1 NaN NaN 8.136930e-2 -8.955138e-2 NaN NaN
 1.784193e-1 -7.599577e-1 NaN NaN 7.835378e-2 5.550406e-2 NaN NaN
 8.454143e-2 -7.961579e-2 NaN NaN 3.738632e-2 3.866377e-2 NaN NaN
 2.358527e-2 -1.149590e-1 NaN NaN -7.652669e-1 -4.196075e-1 NaN NaN
3.580000e9 2.501627e-1 -2.159150e-1 NaN NaN 7.621854e-2 -9.532045e-2 NaN NaN
 1.678865e-1 -7.791919e-1 NaN NaN 8.270028e-2 5.129750e-2 NaN NaN
 7.987125e-2 -8.576442e-2 NaN NaN 3.885180e-2 4.694898e-2 NaN NaN
 1.811254e-2 -1.161245e-1 NaN NaN -7.658235e-1 -4.042111e-1 NaN NaN
3.590000e9 2.307774e-1 -2.140564e-1 NaN NaN 7.014460e-2 -1.002707e-1 NaN NaN
 1.566364e-1 -7.961097e-1 NaN NaN 8.664237e-2 4.604851e-2 NaN NaN
 7.425637e-2 -9.109472e-2 NaN NaN 4.023549e-2 5.453034e-2 NaN NaN
 1.273216e-2 -1.167818e-1 NaN NaN -7.650917e-1 -3.881490e-1 NaN NaN
3.600000e9 2.129971e-1 -2.106108e-1 NaN NaN 6.369041e-2 -1.041169e-1 NaN NaN
 1.450100e-1 -8.112446e-1 NaN NaN 8.965815e-2 4.010431e-2 NaN NaN
 6.822272e-2 -9.533551e-2 NaN NaN 4.104911e-2 6.237450e-2 NaN NaN
 7.629851e-3 -1.170616e-1 NaN NaN -7.629694e-1 -3.719371e-1 NaN NaN
3.610000e9 1.971278e-1 -2.058339e-1 NaN NaN 5.743184e-2 -1.070072e-1 NaN NaN
 1.329723e-1 -8.249691e-1 NaN NaN 9.160801e-2 3.405696e-2 NaN NaN
 6.232366e-2 -9.861795e-2 NaN NaN 4.162234e-2 7.147183e-2 NaN NaN
 2.857715e-3 -1.172019e-1 NaN NaN -7.597896e-1 -3.558597e-1 NaN NaN
3.620000e9 1.833780e-1 -2.002851e-1 NaN NaN 5.167044e-2 -1.094221e-1 NaN NaN
 1.203908e-1 -8.373240e-1 NaN NaN 9.279231e-2 2.839913e-2 NaN NaN
 5.686378e-2 -1.013814e-1 NaN NaN 4.282333e-2 8.231556e-2 NaN NaN
 -1.709963e-3 -1.174228e-1 NaN NaN -7.559179e-1 -3.396728e-1 NaN NaN
3.630000e9 1.715918e-1 -1.946513e-1 NaN NaN 4.628653e-2 -1.118888e-1 NaN NaN
 1.073266e-1 -8.481201e-1 NaN NaN 9.374292e-2 2.324116e-2 NaN NaN
 5.176693e-2 -1.041195e-1 NaN NaN 4.555025e-2 9.477152e-2 NaN NaN
 -6.318410e-3 -1.178074e-1 NaN NaN -7.512442e-1 -3.227625e-1 NaN NaN
3.640000e9 1.612255e-1 -1.894040e-1 NaN NaN 4.083474e-2 -1.146811e-1 NaN NaN
 9.412839e-2 -8.572169e-1 NaN NaN 9.487372e-2 1.826563e-2 NaN NaN
 4.665477e-2 -1.071138e-1 NaN NaN 5.035730e-2 1.083366e-1 NaN NaN
 -1.120949e-2 -1.182600e-1 NaN NaN -7.449789e-1 -3.046838e-1 NaN NaN
3.650000e9 1.516184e-1 -1.845498e-1 NaN NaN 3.481560e-2 -1.176792e-1 NaN NaN
 8.126817e-2 -8.647599e-1 NaN NaN 9.620746e-2 1.294964e-2 NaN NaN
 4.107698e-2 -1.103042e-1 NaN NaN 5.742882e-2 1.225250e-1 NaN NaN
 -1.651060e-2 -1.185602e-1 NaN NaN -7.359651e-1 -2.856967e-1 NaN NaN
3.660000e9 1.423816e-1 -1.796801e-1 NaN NaN 2.795261e-2 -1.204612e-1 NaN NaN
 6.905291e-2 -8.711915e-1 NaN NaN 9.735065e-2 6.913845e-3 NaN NaN
 3.475109e-2 -1.133521e-1 NaN NaN 6.683652e-2 1.370769e-1 NaN NaN
 -2.219800e-2 -1.184705e-1 NaN NaN -7.233236e-1 -2.668808e-1 NaN NaN
3.670000e9 1.336218e-1 -1.743158e-1 NaN NaN 2.031086e-2 -1.225500e-1 NaN NaN
 5.743672e-2 -8.770244e-1 NaN NaN 9.772877e-2 1.757916e-4 NaN NaN
 2.767765e-2 -1.158378e-1 NaN NaN 7.882053e-2 1.518654e-1 NaN NaN
 -2.814315e-2 -1.178253e-1 NaN NaN -7.069790e-1 -2.497068e-1 NaN NaN
3.680000e9 1.258202e-1 -1.683171e-1 NaN NaN 1.220546e-2 -1.236492e-1 NaN NaN
 4.608387e-2 -8.825484e-1 NaN NaN 9.692535e-2 -6.850581e-3 NaN NaN
 2.008549e-2 -1.174592e-1 NaN NaN 9.386037e-2 1.666239e-1 NaN NaN
 -3.419639e-2 -1.165526e-1 NaN NaN -6.876739e-1 -2.353487e-1 NaN NaN
3.690000e9 1.194274e-1 -1.620617e-1 NaN NaN 3.984925e-3 -1.237249e-1 NaN NaN
 3.464183e-2 -8.876940e-1 NaN NaN 9.490486e-2 -1.360031e-2 NaN NaN
 1.226997e-2 -1.181160e-1 NaN NaN 1.124999e-1 1.807308e-1 NaN NaN
 -4.024312e-2 -1.146279e-1 NaN NaN -6.664477e-1 -2.242356e-1 NaN NaN
3.700000e9 1.144521e-1 -1.562440e-1 NaN NaN -4.154450e-3 -1.229024e-1 NaN NaN
 2.302147e-2 -8.921622e-1 NaN NaN 9.197779e-2 -1.968002e-2 NaN NaN
 4.444630e-3 -1.178502e-1 NaN NaN 1.350825e-1 1.932040e-1 NaN NaN
 -4.619583e-2 -1.120120e-1 NaN NaN -6.439588e-1 -2.161873e-1 NaN NaN
3.710000e9 1.103461e-1 -1.514165e-1 NaN NaN -1.220064e-2 -1.212695e-1 NaN NaN
 1.147068e-2 -8.957281e-1 NaN NaN 8.853568e-2 -2.504954e-2 NaN NaN
 -3.297976e-3 -1.167105e-1 NaN NaN 1.615891e-1 2.028617e-1 NaN NaN
 -5.193624e-2 -1.086285e-1 NaN NaN -6.201778e-1 -2.110586e-1 NaN NaN
3.720000e9 1.062858e-1 -1.475918e-1 NaN NaN -2.019172e-2 -1.187340e-1 NaN NaN
 3.785700e-4 -8.984910e-1 NaN NaN 8.473794e-2 -2.993308e-2 NaN NaN
 -1.090497e-2 -1.146493e-1 NaN NaN 1.916330e-1 2.084827e-1 NaN NaN
 -5.725906e-2 -1.044042e-1 NaN NaN -5.947463e-1 -2.094204e-1 NaN NaN
3.730000e9 1.016731e-1 -1.441969e-1 NaN NaN -2.801534e-2 -1.150423e-1 NaN NaN
 -1.004962e-2 -9.008766e-1 NaN NaN 8.037489e-2 -3.450747e-2 NaN NaN
 -1.823369e-2 -1.115304e-1 NaN NaN 2.244944e-1 2.088454e-1 NaN NaN
 -6.186771e-2 -9.934902e-2 NaN NaN -5.678241e-1 -2.127158e-1 NaN NaN
3.740000e9 9.650318e-2 -1.404294e-1 NaN NaN -3.528493e-2 -1.099538e-1 NaN NaN
 -2.000450e-2 -9.033784e-1 NaN NaN 7.502719e-2 -3.857101e-2 NaN NaN
 -2.497402e-2 -1.072389e-1 NaN NaN 2.590252e-1 2.027117e-1 NaN NaN
 -6.543436e-2 -9.362117e-2 NaN NaN -5.408534e-1 -2.226494e-1 NaN NaN
3.750000e9 9.133297e-2 -1.357779e-1 NaN NaN -4.138354e-2 -1.034663e-1 NaN NaN
 -3.000558e-2 -9.062206e-1 NaN NaN 6.845433e-2 -4.142604e-2 NaN NaN
 -3.068101e-2 -1.018211e-1 NaN NaN 2.934038e-1 1.889693e-1 NaN NaN
 -6.769241e-2 -8.753467e-2 NaN NaN -5.166553e-1 -2.400838e-1 NaN NaN
3.760000e9 8.685795e-2 -1.303354e-1 NaN NaN -4.566167e-2 -9.595686e-2 NaN NaN
 -4.059336e-2 -9.091895e-1 NaN NaN 6.099356e-2 -4.209342e-2 NaN NaN
 -3.489953e-2 -9.556198e-2 NaN NaN 3.249592e-1 1.671064e-1 NaN NaN
 -6.850945e-2 -8.150641e-2 NaN NaN -4.986533e-1 -2.640795e-1 NaN NaN
3.770000e9 8.339511e-2 -1.246731e-1 NaN NaN -4.768969e-2 -8.815757e-2 NaN NaN
 -5.199997e-2 -9.117636e-1 NaN NaN 5.372303e-2 -3.979251e-2 NaN NaN
 -3.730562e-2 -8.895978e-2 NaN NaN 3.504158e-1 1.379294e-1 NaN NaN
 -6.790666e-2 -7.597841e-2 NaN NaN -4.895327e-1 -2.916890e-1 NaN NaN
3.780000e9 8.065072e-2 -1.193506e-1 NaN NaN -4.744063e-2 -8.097093e-2 NaN NaN
 -6.403998e-2 -9.134486e-1 NaN NaN 4.824295e-2 -3.446289e-2 NaN NaN
 -3.778961e-2 -8.262539e-2 NaN NaN 3.667761e-1 1.041071e-1 NaN NaN
 -6.603104e-2 -7.136226e-2 NaN NaN -4.900079e-1 -3.187485e-1 NaN NaN
3.790000e9 7.795999e-2 -1.144156e-1 NaN NaN -4.531454e-2 -7.521069e-2 NaN NaN
 -7.630261e-2 -9.140707e-1 NaN NaN 4.611457e-2 -2.704102e-2 NaN NaN
 -3.645742e-2 -7.717544e-2 NaN NaN 3.726332e-1 6.997141e-2 NaN NaN
 -6.311951e-2 -6.802704e-2 NaN NaN -4.983973e-1 -3.413770e-1 NaN NaN
3.800000e9 7.484544e-2 -1.092679e-1 NaN NaN -4.199386e-2 -7.139370e-2 NaN NaN
 -8.850027e-2 -9.138021e-1 NaN NaN 4.820489e-2 -1.928511e-2 NaN NaN
 -3.358686e-2 -7.317401e-2 NaN NaN 3.692092e-1 4.028503e-2 NaN NaN
 -5.949304e-2 -6.631233e-2 NaN NaN -5.113472e-1 -3.574283e-1 NaN NaN
3.810000e9 7.149681e-2 -1.030150e-1 NaN NaN -3.821262e-2 -6.968611e-2 NaN NaN
 -1.007031e-1 -9.128950e-1 NaN NaN 5.429608e-2 -1.317789e-2 NaN NaN
 -2.959846e-2 -7.112377e-2 NaN NaN 3.602811e-1 1.838206e-2 NaN NaN
 -5.558743e-2 -6.652472e-2 NaN NaN -5.253764e-1 -3.670475e-1 NaN NaN
3.820000e9 6.881139e-2 -9.509073e-2 NaN NaN -3.457775e-2 -7.001548e-2 NaN NaN
 -1.132644e-1 -9.113176e-1 NaN NaN 6.320457e-2 -1.021460e-2 NaN NaN
 -2.507176e-2 -7.145938e-2 NaN NaN 3.507191e-1 4.736564e-3 NaN NaN
 -5.198961e-2 -6.888772e-2 NaN NaN -5.383277e-1 -3.719811e-1 NaN NaN
3.830000e9 6.794021e-2 -8.569922e-2 NaN NaN -3.154431e-2 -7.225008e-2 NaN NaN
 -1.264697e-1 -9.085781e-1 NaN NaN 7.333884e-2 -1.098145e-2 NaN NaN
 -2.078347e-2 -7.449129e-2 NaN NaN 3.443318e-1 -3.051866e-3 NaN NaN
 -4.943517e-2 -7.345171e-2 NaN NaN -5.498344e-1 -3.741218e-1 NaN NaN
3.840000e9 6.964911e-2 -7.576026e-2 NaN NaN -2.953489e-2 -7.630422e-2 NaN NaN
 -1.401526e-1 -9.038901e-1 NaN NaN 8.334544e-2 -1.523649e-2 NaN NaN
 -1.770713e-2 -8.028952e-2 NaN NaN 3.422910e-1 -8.732911e-3 NaN NaN
 -4.874357e-2 -8.000353e-2 NaN NaN -5.605954e-1 -3.742828e-1 NaN NaN
3.850000e9 7.395146e-2 -6.638880e-2 NaN NaN -2.909118e-2 -8.208767e-2 NaN NaN
 -1.535579e-1 -8.965872e-1 NaN NaN 9.246936e-2 -2.237711e-2 NaN NaN
 -1.692497e-2 -8.855132e-2 NaN NaN 3.430914e-1 -1.521963e-2 NaN NaN
 -5.070470e-2 -8.801804e-2 NaN NaN -5.710658e-1 -3.719689e-1 NaN NaN
3.860000e9 8.027822e-2 -5.829189e-2 NaN NaN -3.092509e-2 -8.932770e-2 NaN NaN
 -1.655548e-1 -8.865114e-1 NaN NaN 1.004693e-1 -3.196622e-2 NaN NaN
 -1.945154e-2 -9.852352e-2 NaN NaN 3.440662e-1 -2.303543e-2 NaN NaN
 -5.595391e-2 -9.666868e-2 NaN NaN -5.804876e-1 -3.661971e-1 NaN NaN
3.870000e9 8.805393e-2 -5.153913e-2 NaN NaN -3.579962e-2 -9.737916e-2 NaN NaN
 -1.750543e-1 -8.741212e-1 NaN NaN 1.072001e-1 -4.399618e-2 NaN NaN
 -2.602003e-2 -1.090314e-1 NaN NaN 3.435606e-1 -3.033340e-2 NaN NaN
 -6.486590e-2 -1.048835e-1 NaN NaN -5.868946e-1 -3.567530e-1 NaN NaN
3.880000e9 9.723117e-2 -4.589851e-2 NaN NaN -4.427358e-2 -1.051551e-1 NaN NaN
 -1.813432e-1 -8.602749e-1 NaN NaN 1.121528e-1 -5.874462e-2 NaN NaN
 -3.690375e-2 -1.186172e-1 NaN NaN 3.424197e-1 -3.452686e-2 NaN NaN
 -7.747273e-2 -1.114243e-1 NaN NaN -5.880767e-1 -3.450230e-1 NaN NaN
3.890000e9 1.083346e-1 -4.150728e-2 NaN NaN -5.643092e-2 -1.112475e-1 NaN NaN
 -1.841254e-1 -8.458853e-1 NaN NaN 1.142553e-1 -7.631925e-2 NaN NaN
 -5.182547e-2 -1.257448e-1 NaN NaN 3.437775e-1 -3.454945e-2 NaN NaN
 -9.339361e-2 -1.149813e-1 NaN NaN -5.828690e-1 -3.338409e-1 NaN NaN
3.900000e9 1.218974e-1 -3.936262e-2 NaN NaN -7.172724e-2 -1.141989e-1 NaN NaN
 -1.832967e-1 -8.317328e-1 NaN NaN 1.120791e-1 -9.617300e-2 NaN NaN
 -6.996311e-2 -1.290099e-1 NaN NaN 3.511809e-1 -3.226211e-2 NaN NaN
 -1.117707e-1 -1.143021e-1 NaN NaN -5.719346e-1 -3.264530e-1 NaN NaN
3.910000e9 1.376229e-1 -4.118538e-2 NaN NaN -8.901086e-2 -1.128111e-1 NaN NaN
 -1.787089e-1 -8.185886e-1 NaN NaN 1.043510e-1 -1.168806e-1 NaN NaN
 -9.002105e-2 -1.273156e-1 NaN NaN 3.662187e-1 -3.202529e-2 NaN NaN
 -1.312342e-1 -1.083773e-1 NaN NaN -5.575993e-1 -3.252794e-1 NaN NaN
3.920000e9 1.538574e-1 -4.861034e-2 NaN NaN -1.066822e-1 -1.063901e-1 NaN NaN
 -1.702116e-1 -8.075271e-1 NaN NaN 9.051206e-2 -1.363036e-1 NaN NaN
 -1.103314e-1 -1.200176e-1 NaN NaN 3.871547e-1 -3.866060e-2 NaN NaN
 -1.499494e-1 -9.668663e-2 NaN NaN -5.429663e-1 -3.311906e-1 NaN NaN
3.930000e9 1.678251e-1 -6.212617e-2 NaN NaN -1.229241e-1 -9.489806e-2 NaN NaN
 -1.580531e-1 -8.000925e-1 NaN NaN 7.107538e-2 -1.520703e-1 NaN NaN
 -1.289861e-1 -1.070641e-1 NaN NaN 4.093912e-1 -5.502081e-2 NaN NaN
 -1.658079e-1 -7.945961e-2 NaN NaN -5.309285e-1 -3.435469e-1 NaN NaN
3.940000e9 1.766280e-1 -8.041506e-2 NaN NaN -1.359736e-1 -7.902042e-2 NaN NaN
 -1.434052e-1 -7.980167e-1 NaN NaN 4.764924e-2 -1.621870e-1 NaN NaN
 -1.440448e-1 -8.913356e-2 NaN NaN 4.274819e-1 -8.054834e-2 NaN NaN
 -1.767930e-1 -5.785060e-2 NaN NaN -5.235803e-1 -3.607338e-1 NaN NaN
3.950000e9 1.785233e-1 -1.005746e-1 NaN NaN -1.444318e-1 -6.013077e-2 NaN NaN
 -1.285673e-1 -8.024723e-1 NaN NaN 2.261478e-2 -1.655734e-1 NaN NaN
 -1.538641e-1 -6.769833e-2 NaN NaN 4.375752e-1 -1.116019e-1 NaN NaN
 -1.814714e-1 -3.389548e-2 NaN NaN -5.221208e-1 -3.807362e-1 NaN NaN
3.960000e9 1.737465e-1 -1.192129e-1 NaN NaN -1.475771e-1 -4.009966e-2 NaN NaN
 -1.165015e-1 -8.132396e-1 NaN NaN -1.449433e-3 -1.623397e-1 NaN NaN
 -1.575106e-1 -4.489219e-2 NaN NaN 4.389387e-1 -1.433557e-1 NaN NaN
 -1.794511e-1 -1.015545e-2 NaN NaN -5.270114e-1 -4.014594e-1 NaN NaN
3.970000e9 1.643458e-1 -1.338495e-1 NaN NaN -1.455698e-1 -2.092284e-2 NaN NaN
 -1.097635e-1 -8.283799e-1 NaN NaN -2.240293e-2 -1.536921e-1 NaN NaN
 -1.550933e-1 -2.310096e-2 NaN NaN 4.337121e-1 -1.721618e-1 NaN NaN
 -1.715760e-1 1.090877e-2 NaN NaN -5.380761e-1 -4.208216e-1 NaN NaN
3.980000e9 1.530859e-1 -1.437943e-1 NaN NaN -1.394174e-1 -4.252523e-3 NaN NaN
 -1.093877e-1 -8.448003e-1 NaN NaN -3.899819e-2 -1.415010e-1 NaN NaN
 -1.478022e-1 -4.360060e-3 NaN NaN 4.251121e-1 -1.969408e-1 NaN NaN
 -1.596931e-1 2.760460e-2 NaN NaN -5.544334e-1 -4.368584e-1 NaN NaN
3.990000e9 1.421046e-1 -1.499851e-1 NaN NaN -1.306626e-1 8.986528e-3 NaN NaN
 -1.144541e-1 -8.595132e-1 NaN NaN -5.098875e-2 -1.277236e-1 NaN NaN
 -1.375485e-1 1.018742e-2 NaN NaN 4.153364e-1 -2.188059e-1 NaN NaN
 -1.460441e-1 3.940365e-2 NaN NaN -5.744244e-1 -4.480427e-1 NaN NaN
4.000000e9 1.321700e-1 -1.539749e-1 NaN NaN -1.209019e-1 1.872435e-2 NaN NaN
 -1.226694e-1 -8.708664e-1 NaN NaN -5.890400e-2 -1.139307e-1 NaN NaN
 -1.263345e-1 2.049949e-2 NaN NaN 4.045811e-1 -2.393569e-1 NaN NaN
 -1.325592e-1 4.687532e-2 NaN NaN -5.958210e-1 -4.537563e-1 NaN NaN
